* Source:     Pyomo MPS Writer
* Format:     Free MPS
*
NAME CALION_Unified
OBJSENSE
 MIN
ROWS
 N  x580
 L  c_u_x581_
 L  c_u_x582_
 L  c_u_x583_
 L  c_u_x584_
 L  c_u_x585_
 L  c_u_x586_
 L  c_u_x587_
 L  c_u_x588_
 L  c_u_x589_
 L  c_u_x590_
 L  c_u_x591_
 L  c_u_x592_
 L  c_u_x593_
 L  c_u_x594_
 L  c_u_x595_
 L  c_u_x596_
 L  c_u_x597_
 L  c_u_x598_
 L  c_u_x599_
 L  c_u_x600_
 L  c_u_x601_
 L  c_u_x602_
 L  c_u_x603_
 L  c_u_x604_
 L  c_u_x605_
 L  c_u_x606_
 L  c_u_x607_
 L  c_u_x608_
 L  c_u_x609_
 L  c_u_x610_
 L  c_u_x611_
 L  c_u_x612_
 L  c_u_x613_
 L  c_u_x614_
 L  c_u_x615_
 L  c_u_x616_
 L  c_u_x617_
 L  c_u_x618_
 L  c_u_x619_
 L  c_u_x620_
 L  c_u_x621_
 L  c_u_x622_
 L  c_u_x623_
 L  c_u_x624_
 L  c_u_x625_
 L  c_u_x626_
 L  c_u_x627_
 L  c_u_x628_
 L  c_u_x629_
 L  c_u_x630_
 L  c_u_x631_
 L  c_u_x632_
 L  c_u_x633_
 L  c_u_x634_
 L  c_u_x635_
 L  c_u_x636_
 L  c_u_x637_
 L  c_u_x638_
 L  c_u_x639_
 L  c_u_x640_
 L  c_u_x641_
 L  c_u_x642_
 L  c_u_x643_
 L  c_u_x644_
 L  c_u_x645_
 L  c_u_x646_
 L  c_u_x647_
 L  c_u_x648_
 L  c_u_x649_
 L  c_u_x650_
 L  c_u_x651_
 L  c_u_x652_
 L  c_u_x653_
 L  c_u_x654_
 L  c_u_x655_
 L  c_u_x656_
 L  c_u_x657_
 L  c_u_x658_
 L  c_u_x659_
 L  c_u_x660_
 L  c_u_x661_
 L  c_u_x662_
 L  c_u_x663_
 L  c_u_x664_
 L  c_u_x665_
 L  c_u_x666_
 L  c_u_x667_
 L  c_u_x668_
 L  c_u_x669_
 L  c_u_x670_
 L  c_u_x671_
 L  c_u_x672_
 L  c_u_x673_
 L  c_u_x674_
 L  c_u_x675_
 L  c_u_x676_
 L  c_u_x677_
 L  c_u_x678_
 L  c_u_x679_
 L  c_u_x680_
 L  c_u_x681_
 L  c_u_x682_
 L  c_u_x683_
 L  c_u_x684_
 L  c_u_x685_
 L  c_u_x686_
 L  c_u_x687_
 L  c_u_x688_
 L  c_u_x689_
 L  c_u_x690_
 L  c_u_x691_
 L  c_u_x692_
 L  c_u_x693_
 L  c_u_x694_
 L  c_u_x695_
 L  c_u_x696_
 L  c_u_x697_
 L  c_u_x698_
 L  c_u_x699_
 L  c_u_x700_
 L  c_u_x701_
 L  c_u_x702_
 L  c_u_x703_
 L  c_u_x704_
 L  c_u_x705_
 L  c_u_x706_
 L  c_u_x707_
 L  c_u_x708_
 L  c_u_x709_
 L  c_u_x710_
 L  c_u_x711_
 L  c_u_x712_
 L  c_u_x713_
 L  c_u_x714_
 L  c_u_x715_
 L  c_u_x716_
 L  c_u_x717_
 L  c_u_x718_
 L  c_u_x719_
 L  c_u_x720_
 L  c_u_x721_
 L  c_u_x722_
 L  c_u_x723_
 L  c_u_x724_
 E  c_e_x725_
 E  c_e_x726_
 E  c_e_x727_
 E  c_e_x728_
 E  c_e_x729_
 E  c_e_x730_
 E  c_e_x731_
 E  c_e_x732_
 E  c_e_x733_
 E  c_e_x734_
 E  c_e_x735_
 E  c_e_x736_
 E  c_e_x737_
 E  c_e_x738_
 E  c_e_x739_
 E  c_e_x740_
 E  c_e_x741_
 E  c_e_x742_
 E  c_e_x743_
 E  c_e_x744_
 E  c_e_x745_
 E  c_e_x746_
 E  c_e_x747_
 E  c_e_x748_
 E  c_e_x749_
 E  c_e_x750_
 E  c_e_x751_
 E  c_e_x752_
 E  c_e_x753_
 E  c_e_x754_
 E  c_e_x755_
 E  c_e_x756_
 E  c_e_x757_
 E  c_e_x758_
 E  c_e_x759_
 E  c_e_x760_
 E  c_e_x761_
 E  c_e_x762_
 E  c_e_x763_
 E  c_e_x764_
 E  c_e_x765_
 E  c_e_x766_
 E  c_e_x767_
 E  c_e_x768_
 E  c_e_x769_
 E  c_e_x770_
 E  c_e_x771_
 E  c_e_x772_
 E  c_e_x773_
 E  c_e_x774_
 E  c_e_x775_
 E  c_e_x776_
 E  c_e_x777_
 E  c_e_x778_
 E  c_e_x779_
 E  c_e_x780_
 E  c_e_x781_
 E  c_e_x782_
 E  c_e_x783_
 E  c_e_x784_
 E  c_e_x785_
 E  c_e_x786_
 E  c_e_x787_
 E  c_e_x788_
 E  c_e_x789_
 E  c_e_x790_
 E  c_e_x791_
 E  c_e_x792_
 E  c_e_x793_
 E  c_e_x794_
 E  c_e_x795_
 E  c_e_x796_
 L  c_u_x797_
 L  c_u_x798_
 L  c_u_x799_
 L  c_u_x800_
 L  c_u_x801_
 L  c_u_x802_
 L  c_u_x803_
 L  c_u_x804_
 L  c_u_x805_
 L  c_u_x806_
 L  c_u_x807_
 L  c_u_x808_
 L  c_u_x809_
 L  c_u_x810_
 L  c_u_x811_
 L  c_u_x812_
 L  c_u_x813_
 L  c_u_x814_
 L  c_u_x815_
 L  c_u_x816_
 L  c_u_x817_
 L  c_u_x818_
 L  c_u_x819_
 L  c_u_x820_
 L  c_u_x821_
 L  c_u_x822_
 L  c_u_x823_
 L  c_u_x824_
 L  c_u_x825_
 L  c_u_x826_
 L  c_u_x827_
 L  c_u_x828_
 L  c_u_x829_
 L  c_u_x830_
 L  c_u_x831_
 L  c_u_x832_
 L  c_u_x833_
 L  c_u_x834_
 L  c_u_x835_
 L  c_u_x836_
 L  c_u_x837_
 L  c_u_x838_
 L  c_u_x839_
 L  c_u_x840_
 L  c_u_x841_
 L  c_u_x842_
 L  c_u_x843_
 L  c_u_x844_
 L  c_u_x845_
 L  c_u_x846_
 L  c_u_x847_
 L  c_u_x848_
 L  c_u_x849_
 L  c_u_x850_
 L  c_u_x851_
 L  c_u_x852_
 L  c_u_x853_
 L  c_u_x854_
 L  c_u_x855_
 L  c_u_x856_
 L  c_u_x857_
 L  c_u_x858_
 L  c_u_x859_
 L  c_u_x860_
 L  c_u_x861_
 L  c_u_x862_
 L  c_u_x863_
 L  c_u_x864_
 L  c_u_x865_
 L  c_u_x866_
 L  c_u_x867_
 L  c_u_x868_
 L  c_u_x869_
 L  c_u_x870_
 E  c_e_x871_
 E  c_e_x872_
 E  c_e_x873_
 E  c_e_x874_
 E  c_e_x875_
 E  c_e_x876_
 E  c_e_x877_
 E  c_e_x878_
 E  c_e_x879_
 E  c_e_x880_
 E  c_e_x881_
 E  c_e_x882_
 E  c_e_x883_
 E  c_e_x884_
 E  c_e_x885_
 E  c_e_x886_
 E  c_e_x887_
 E  c_e_x888_
 E  c_e_x889_
 E  c_e_x890_
 E  c_e_x891_
 E  c_e_x892_
 E  c_e_x893_
 E  c_e_x894_
 E  c_e_x895_
 E  c_e_x896_
 E  c_e_x897_
 E  c_e_x898_
 E  c_e_x899_
 E  c_e_x900_
 E  c_e_x901_
 E  c_e_x902_
 E  c_e_x903_
 E  c_e_x904_
 E  c_e_x905_
 E  c_e_x906_
 E  c_e_x907_
 E  c_e_x908_
 E  c_e_x909_
 E  c_e_x910_
 E  c_e_x911_
 E  c_e_x912_
 E  c_e_x913_
 E  c_e_x914_
 E  c_e_x915_
 E  c_e_x916_
 E  c_e_x917_
 E  c_e_x918_
 E  c_e_x919_
 E  c_e_x920_
 E  c_e_x921_
 E  c_e_x922_
 E  c_e_x923_
 E  c_e_x924_
 E  c_e_x925_
 E  c_e_x926_
 E  c_e_x927_
 E  c_e_x928_
 E  c_e_x929_
 E  c_e_x930_
 E  c_e_x931_
 E  c_e_x932_
 E  c_e_x933_
 E  c_e_x934_
 E  c_e_x935_
 E  c_e_x936_
 E  c_e_x937_
 E  c_e_x938_
 E  c_e_x939_
 E  c_e_x940_
 E  c_e_x941_
 E  c_e_x942_
 E  c_e_x943_
 E  c_e_x944_
 E  c_e_x945_
 E  c_e_x946_
 E  c_e_x947_
 E  c_e_x948_
 E  c_e_x949_
 E  c_e_x950_
 E  c_e_x951_
 E  c_e_x952_
 E  c_e_x953_
 E  c_e_x954_
 E  c_e_x955_
 E  c_e_x956_
 E  c_e_x957_
 E  c_e_x958_
 E  c_e_x959_
 E  c_e_x960_
 E  c_e_x961_
 E  c_e_x962_
 E  c_e_x963_
 E  c_e_x964_
 E  c_e_x965_
 E  c_e_x966_
 E  c_e_x967_
 E  c_e_x968_
 E  c_e_x969_
 E  c_e_x970_
 E  c_e_x971_
 E  c_e_x972_
 E  c_e_x973_
 E  c_e_x974_
 E  c_e_x975_
 E  c_e_x976_
 E  c_e_x977_
 E  c_e_x978_
 E  c_e_x979_
 E  c_e_x980_
 E  c_e_x981_
 E  c_e_x982_
 E  c_e_x983_
 E  c_e_x984_
 E  c_e_x985_
 E  c_e_x986_
 E  c_e_x987_
 E  c_e_x988_
 E  c_e_x989_
 E  c_e_x990_
 E  c_e_x991_
 E  c_e_x992_
 E  c_e_x993_
 E  c_e_x994_
 E  c_e_x995_
 E  c_e_x996_
 E  c_e_x997_
 E  c_e_x998_
 E  c_e_x999_
 E  c_e_x1000_
 E  c_e_x1001_
 E  c_e_x1002_
 E  c_e_x1003_
 E  c_e_x1004_
 E  c_e_x1005_
 E  c_e_x1006_
 E  c_e_x1007_
 E  c_e_x1008_
 E  c_e_x1009_
 E  c_e_x1010_
 E  c_e_x1011_
 E  c_e_x1012_
 E  c_e_x1013_
 E  c_e_x1014_
 L  c_u_x1015_
 L  c_u_x1016_
 L  c_u_x1017_
 L  c_u_x1018_
 L  c_u_x1019_
 L  c_u_x1020_
 L  c_u_x1021_
 L  c_u_x1022_
 L  c_u_x1023_
 L  c_u_x1024_
 L  c_u_x1025_
 L  c_u_x1026_
 L  c_u_x1027_
 L  c_u_x1028_
 L  c_u_x1029_
 L  c_u_x1030_
 L  c_u_x1031_
 L  c_u_x1032_
 L  c_u_x1033_
 L  c_u_x1034_
 L  c_u_x1035_
 L  c_u_x1036_
 L  c_u_x1037_
 L  c_u_x1038_
 L  c_u_x1039_
 L  c_u_x1040_
 L  c_u_x1041_
 L  c_u_x1042_
 L  c_u_x1043_
 L  c_u_x1044_
 L  c_u_x1045_
 L  c_u_x1046_
 L  c_u_x1047_
 L  c_u_x1048_
 L  c_u_x1049_
 L  c_u_x1050_
 L  c_u_x1051_
 L  c_u_x1052_
 L  c_u_x1053_
 L  c_u_x1054_
 L  c_u_x1055_
 L  c_u_x1056_
 L  c_u_x1057_
 L  c_u_x1058_
 L  c_u_x1059_
 L  c_u_x1060_
 L  c_u_x1061_
 L  c_u_x1062_
 L  c_u_x1063_
 L  c_u_x1064_
 L  c_u_x1065_
 L  c_u_x1066_
 L  c_u_x1067_
 L  c_u_x1068_
 L  c_u_x1069_
 L  c_u_x1070_
 L  c_u_x1071_
 L  c_u_x1072_
 L  c_u_x1073_
 L  c_u_x1074_
 L  c_u_x1075_
 L  c_u_x1076_
 L  c_u_x1077_
 L  c_u_x1078_
 L  c_u_x1079_
 L  c_u_x1080_
 L  c_u_x1081_
 L  c_u_x1082_
 L  c_u_x1083_
 L  c_u_x1084_
 L  c_u_x1085_
 L  c_u_x1086_
 L  c_u_x1087_
 L  c_u_x1088_
 L  c_u_x1089_
 L  c_u_x1090_
 L  c_u_x1091_
 L  c_u_x1092_
 L  c_u_x1093_
 L  c_u_x1094_
 L  c_u_x1095_
 L  c_u_x1096_
 L  c_u_x1097_
 L  c_u_x1098_
 L  c_u_x1099_
 L  c_u_x1100_
 L  c_u_x1101_
 L  c_u_x1102_
 L  c_u_x1103_
 L  c_u_x1104_
 L  c_u_x1105_
 L  c_u_x1106_
 L  c_u_x1107_
 L  c_u_x1108_
 L  c_u_x1109_
 L  c_u_x1110_
 L  c_u_x1111_
 L  c_u_x1112_
 L  c_u_x1113_
 L  c_u_x1114_
 L  c_u_x1115_
 L  c_u_x1116_
 L  c_u_x1117_
 L  c_u_x1118_
 L  c_u_x1119_
 L  c_u_x1120_
 L  c_u_x1121_
 L  c_u_x1122_
 L  c_u_x1123_
 L  c_u_x1124_
 L  c_u_x1125_
 L  c_u_x1126_
 L  c_u_x1127_
 L  c_u_x1128_
 L  c_u_x1129_
 L  c_u_x1130_
 L  c_u_x1131_
 L  c_u_x1132_
 L  c_u_x1133_
 L  c_u_x1134_
 L  c_u_x1135_
 L  c_u_x1136_
 L  c_u_x1137_
 L  c_u_x1138_
 L  c_u_x1139_
 L  c_u_x1140_
 L  c_u_x1141_
 L  c_u_x1142_
 L  c_u_x1143_
 L  c_u_x1144_
 L  c_u_x1145_
 L  c_u_x1146_
 L  c_u_x1147_
 L  c_u_x1148_
 L  c_u_x1149_
 L  c_u_x1150_
 L  c_u_x1151_
 L  c_u_x1152_
 L  c_u_x1153_
 L  c_u_x1154_
 L  c_u_x1155_
 L  c_u_x1156_
 L  c_u_x1157_
 L  c_u_x1158_
 L  c_u_x1159_
 L  c_u_x1160_
 L  c_u_x1161_
 L  c_u_x1162_
 L  c_u_x1163_
 L  c_u_x1164_
 L  c_u_x1165_
 L  c_u_x1166_
 L  c_u_x1167_
 L  c_u_x1168_
 L  c_u_x1169_
 L  c_u_x1170_
 L  c_u_x1171_
 L  c_u_x1172_
 L  c_u_x1173_
 L  c_u_x1174_
 L  c_u_x1175_
 L  c_u_x1176_
 L  c_u_x1177_
 L  c_u_x1178_
 L  c_u_x1179_
 L  c_u_x1180_
 L  c_u_x1181_
 L  c_u_x1182_
 L  c_u_x1183_
 L  c_u_x1184_
 L  c_u_x1185_
 L  c_u_x1186_
 L  c_u_x1187_
 L  c_u_x1188_
 L  c_u_x1189_
 L  c_u_x1190_
 L  c_u_x1191_
 L  c_u_x1192_
 L  c_u_x1193_
 L  c_u_x1194_
 L  c_u_x1195_
 L  c_u_x1196_
 L  c_u_x1197_
 L  c_u_x1198_
 L  c_u_x1199_
 L  c_u_x1200_
 L  c_u_x1201_
 L  c_u_x1202_
 L  c_u_x1203_
 L  c_u_x1204_
 L  c_u_x1205_
 L  c_u_x1206_
 L  c_u_x1207_
 L  c_u_x1208_
 L  c_u_x1209_
 L  c_u_x1210_
 L  c_u_x1211_
 L  c_u_x1212_
 L  c_u_x1213_
 L  c_u_x1214_
 L  c_u_x1215_
 L  c_u_x1216_
 L  c_u_x1217_
 L  c_u_x1218_
 L  c_u_x1219_
 L  c_u_x1220_
 L  c_u_x1221_
 L  c_u_x1222_
 L  c_u_x1223_
 L  c_u_x1224_
 L  c_u_x1225_
 L  c_u_x1226_
 L  c_u_x1227_
 L  c_u_x1228_
 L  c_u_x1229_
 L  c_u_x1230_
 L  c_u_x1231_
 L  c_u_x1232_
 L  c_u_x1233_
 L  c_u_x1234_
 L  c_u_x1235_
 L  c_u_x1236_
 L  c_u_x1237_
 L  c_u_x1238_
 L  c_u_x1239_
 L  c_u_x1240_
 L  c_u_x1241_
 L  c_u_x1242_
 L  c_u_x1243_
 L  c_u_x1244_
 L  c_u_x1245_
 L  c_u_x1246_
 L  c_u_x1247_
 L  c_u_x1248_
 L  c_u_x1249_
 L  c_u_x1250_
 L  c_u_x1251_
 L  c_u_x1252_
 L  c_u_x1253_
 L  c_u_x1254_
 L  c_u_x1255_
 L  c_u_x1256_
 L  c_u_x1257_
 L  c_u_x1258_
 L  c_u_x1259_
 L  c_u_x1260_
 L  c_u_x1261_
 L  c_u_x1262_
 L  c_u_x1263_
 L  c_u_x1264_
 L  c_u_x1265_
 L  c_u_x1266_
 L  c_u_x1267_
 L  c_u_x1268_
 L  c_u_x1269_
 L  c_u_x1270_
 L  c_u_x1271_
 L  c_u_x1272_
 L  c_u_x1273_
 L  c_u_x1274_
 L  c_u_x1275_
 L  c_u_x1276_
 L  c_u_x1277_
 L  c_u_x1278_
 L  c_u_x1279_
 L  c_u_x1280_
 L  c_u_x1281_
 L  c_u_x1282_
 L  c_u_x1283_
 L  c_u_x1284_
 L  c_u_x1285_
 L  c_u_x1286_
 L  c_u_x1287_
 L  c_u_x1288_
 L  c_u_x1289_
 L  c_u_x1290_
 L  c_u_x1291_
 L  c_u_x1292_
 L  c_u_x1293_
 L  c_u_x1294_
 L  c_u_x1295_
 L  c_u_x1296_
 L  c_u_x1297_
 L  c_u_x1298_
 L  c_u_x1299_
 L  c_u_x1300_
 L  c_u_x1301_
 L  c_u_x1302_
 L  c_u_x1303_
 L  c_u_x1304_
 L  c_u_x1305_
 L  c_u_x1306_
 L  c_u_x1307_
 L  c_u_x1308_
 L  c_u_x1309_
 L  c_u_x1310_
 L  c_u_x1311_
 L  c_u_x1312_
 L  c_u_x1313_
 L  c_u_x1314_
 L  c_u_x1315_
 L  c_u_x1316_
 L  c_u_x1317_
 L  c_u_x1318_
 L  c_u_x1319_
 L  c_u_x1320_
 L  c_u_x1321_
 L  c_u_x1322_
 L  c_u_x1323_
 L  c_u_x1324_
 L  c_u_x1325_
 L  c_u_x1326_
 L  c_u_x1327_
 L  c_u_x1328_
 L  c_u_x1329_
 L  c_u_x1330_
 L  c_u_x1331_
 L  c_u_x1332_
 L  c_u_x1333_
 L  c_u_x1334_
 L  c_u_x1335_
 L  c_u_x1336_
 L  c_u_x1337_
 L  c_u_x1338_
 L  c_u_x1339_
 L  c_u_x1340_
 L  c_u_x1341_
 L  c_u_x1342_
 L  c_u_x1343_
 L  c_u_x1344_
 L  c_u_x1345_
 L  c_u_x1346_
 L  c_u_x1347_
 L  c_u_x1348_
 L  c_u_x1349_
 L  c_u_x1350_
 L  c_u_x1351_
 L  c_u_x1352_
 L  c_u_x1353_
 L  c_u_x1354_
 L  c_u_x1355_
 L  c_u_x1356_
 L  c_u_x1357_
 L  c_u_x1358_
 L  c_u_x1359_
 L  c_u_x1360_
 L  c_u_x1361_
 L  c_u_x1362_
 L  c_u_x1363_
 L  c_u_x1364_
 L  c_u_x1365_
 L  c_u_x1366_
 L  c_u_x1367_
 L  c_u_x1368_
 L  c_u_x1369_
 L  c_u_x1370_
 L  c_u_x1371_
 L  c_u_x1372_
 L  c_u_x1373_
 L  c_u_x1374_
COLUMNS
     x1 x580 2.1600000000000001
     x1 c_e_x871_ 1
     x1 c_u_x1015_ 1
     x1 c_u_x1159_ 1
     x1 c_u_x1303_ 1
     x2 x580 1.6000000000000001
     x2 c_e_x872_ 1
     x2 c_u_x1016_ 1
     x2 c_u_x1160_ 1
     x2 c_u_x1304_ 1
     x3 c_e_x873_ 1
     x3 c_u_x1017_ 1
     x3 c_u_x1161_ 1
     x3 c_u_x1305_ 1
     x4 x580 -0.01
     x4 c_e_x874_ 1
     x4 c_u_x1018_ 1
     x4 c_u_x1162_ 1
     x4 c_u_x1306_ 1
     x5 x580 -0.01
     x5 c_e_x875_ 1
     x5 c_u_x1019_ 1
     x5 c_u_x1163_ 1
     x5 c_u_x1307_ 1
     x6 x580 -0.059999999999999998
     x6 c_e_x876_ 1
     x6 c_u_x1020_ 1
     x6 c_u_x1164_ 1
     x6 c_u_x1308_ 1
     x7 x580 -0.089999999999999997
     x7 c_e_x877_ 1
     x7 c_u_x1021_ 1
     x7 c_u_x1165_ 1
     x7 c_u_x1309_ 1
     x8 x580 -0.01
     x8 c_e_x878_ 1
     x8 c_u_x1022_ 1
     x8 c_u_x1166_ 1
     x8 c_u_x1310_ 1
     x9 x580 -0.01
     x9 c_e_x879_ 1
     x9 c_u_x1023_ 1
     x9 c_u_x1167_ 1
     x9 c_u_x1311_ 1
     x10 x580 -0.040000000000000001
     x10 c_e_x880_ 1
     x10 c_u_x1024_ 1
     x10 c_u_x1168_ 1
     x10 c_u_x1312_ 1
     x11 x580 -0.029999999999999999
     x11 c_e_x881_ 1
     x11 c_u_x1025_ 1
     x11 c_u_x1169_ 1
     x11 c_u_x1313_ 1
     x12 x580 -0.10000000000000001
     x12 c_e_x882_ 1
     x12 c_u_x1026_ 1
     x12 c_u_x1170_ 1
     x12 c_u_x1314_ 1
     x13 x580 -0.050000000000000003
     x13 c_e_x883_ 1
     x13 c_u_x1027_ 1
     x13 c_u_x1171_ 1
     x13 c_u_x1315_ 1
     x14 x580 -0.10000000000000001
     x14 c_e_x884_ 1
     x14 c_u_x1028_ 1
     x14 c_u_x1172_ 1
     x14 c_u_x1316_ 1
     x15 x580 -1.01
     x15 c_e_x885_ 1
     x15 c_u_x1029_ 1
     x15 c_u_x1173_ 1
     x15 c_u_x1317_ 1
     x16 x580 -0.01
     x16 c_e_x886_ 1
     x16 c_u_x1030_ 1
     x16 c_u_x1174_ 1
     x16 c_u_x1318_ 1
     x17 x580 -0.01
     x17 c_e_x887_ 1
     x17 c_u_x1031_ 1
     x17 c_u_x1175_ 1
     x17 c_u_x1319_ 1
     x18 x580 0.070000000000000007
     x18 c_e_x888_ 1
     x18 c_u_x1032_ 1
     x18 c_u_x1176_ 1
     x18 c_u_x1320_ 1
     x19 x580 1.01
     x19 c_e_x889_ 1
     x19 c_u_x1033_ 1
     x19 c_u_x1177_ 1
     x19 c_u_x1321_ 1
     x20 x580 1.48
     x20 c_e_x890_ 1
     x20 c_u_x1034_ 1
     x20 c_u_x1178_ 1
     x20 c_u_x1322_ 1
     x21 x580 1
     x21 c_e_x891_ 1
     x21 c_u_x1035_ 1
     x21 c_u_x1179_ 1
     x21 c_u_x1323_ 1
     x22 x580 0.070000000000000007
     x22 c_e_x892_ 1
     x22 c_u_x1036_ 1
     x22 c_u_x1180_ 1
     x22 c_u_x1324_ 1
     x23 x580 10.050000000000001
     x23 c_e_x893_ 1
     x23 c_u_x1037_ 1
     x23 c_u_x1181_ 1
     x23 c_u_x1325_ 1
     x24 x580 7.0099999999999998
     x24 c_e_x894_ 1
     x24 c_u_x1038_ 1
     x24 c_u_x1182_ 1
     x24 c_u_x1326_ 1
     x25 x580 2.5499999999999998
     x25 c_e_x895_ 1
     x25 c_u_x1039_ 1
     x25 c_u_x1183_ 1
     x25 c_u_x1327_ 1
     x26 x580 1.5600000000000001
     x26 c_e_x896_ 1
     x26 c_u_x1040_ 1
     x26 c_u_x1184_ 1
     x26 c_u_x1328_ 1
     x27 x580 3.4500000000000002
     x27 c_e_x897_ 1
     x27 c_u_x1041_ 1
     x27 c_u_x1185_ 1
     x27 c_u_x1329_ 1
     x28 x580 7.0199999999999996
     x28 c_e_x898_ 1
     x28 c_u_x1042_ 1
     x28 c_u_x1186_ 1
     x28 c_u_x1330_ 1
     x29 x580 12.75
     x29 c_e_x899_ 1
     x29 c_u_x1043_ 1
     x29 c_u_x1187_ 1
     x29 c_u_x1331_ 1
     x30 x580 30.07
     x30 c_e_x900_ 1
     x30 c_u_x1044_ 1
     x30 c_u_x1188_ 1
     x30 c_u_x1332_ 1
     x31 x580 67.129999999999995
     x31 c_e_x901_ 1
     x31 c_u_x1045_ 1
     x31 c_u_x1189_ 1
     x31 c_u_x1333_ 1
     x32 x580 98.829999999999998
     x32 c_e_x902_ 1
     x32 c_u_x1046_ 1
     x32 c_u_x1190_ 1
     x32 c_u_x1334_ 1
     x33 x580 121.53
     x33 c_e_x903_ 1
     x33 c_u_x1047_ 1
     x33 c_u_x1191_ 1
     x33 c_u_x1335_ 1
     x34 x580 127.23
     x34 c_e_x904_ 1
     x34 c_u_x1048_ 1
     x34 c_u_x1192_ 1
     x34 c_u_x1336_ 1
     x35 x580 126.34999999999999
     x35 c_e_x905_ 1
     x35 c_u_x1049_ 1
     x35 c_u_x1193_ 1
     x35 c_u_x1337_ 1
     x36 x580 119.97
     x36 c_e_x906_ 1
     x36 c_u_x1050_ 1
     x36 c_u_x1194_ 1
     x36 c_u_x1338_ 1
     x37 x580 115.95
     x37 c_e_x907_ 1
     x37 c_u_x1051_ 1
     x37 c_u_x1195_ 1
     x37 c_u_x1339_ 1
     x38 x580 113.90000000000001
     x38 c_e_x908_ 1
     x38 c_u_x1052_ 1
     x38 c_u_x1196_ 1
     x38 c_u_x1340_ 1
     x39 x580 122.20999999999999
     x39 c_e_x909_ 1
     x39 c_u_x1053_ 1
     x39 c_u_x1197_ 1
     x39 c_u_x1341_ 1
     x40 x580 130.11000000000001
     x40 c_e_x910_ 1
     x40 c_u_x1054_ 1
     x40 c_u_x1198_ 1
     x40 c_u_x1342_ 1
     x41 x580 138.59
     x41 c_e_x911_ 1
     x41 c_u_x1055_ 1
     x41 c_u_x1199_ 1
     x41 c_u_x1343_ 1
     x42 x580 152.87
     x42 c_e_x912_ 1
     x42 c_u_x1056_ 1
     x42 c_u_x1200_ 1
     x42 c_u_x1344_ 1
     x43 x580 152.94
     x43 c_e_x913_ 1
     x43 c_u_x1057_ 1
     x43 c_u_x1201_ 1
     x43 c_u_x1345_ 1
     x44 x580 139.15000000000001
     x44 c_e_x914_ 1
     x44 c_u_x1058_ 1
     x44 c_u_x1202_ 1
     x44 c_u_x1346_ 1
     x45 x580 130
     x45 c_e_x915_ 1
     x45 c_u_x1059_ 1
     x45 c_u_x1203_ 1
     x45 c_u_x1347_ 1
     x46 x580 119.78
     x46 c_e_x916_ 1
     x46 c_u_x1060_ 1
     x46 c_u_x1204_ 1
     x46 c_u_x1348_ 1
     x47 x580 113.42
     x47 c_e_x917_ 1
     x47 c_u_x1061_ 1
     x47 c_u_x1205_ 1
     x47 c_u_x1349_ 1
     x48 x580 82.469999999999999
     x48 c_e_x918_ 1
     x48 c_u_x1062_ 1
     x48 c_u_x1206_ 1
     x48 c_u_x1350_ 1
     x49 x580 99.560000000000002
     x49 c_e_x919_ 1
     x49 c_u_x1063_ 1
     x49 c_u_x1207_ 1
     x49 c_u_x1351_ 1
     x50 x580 87.530000000000001
     x50 c_e_x920_ 1
     x50 c_u_x1064_ 1
     x50 c_u_x1208_ 1
     x50 c_u_x1352_ 1
     x51 x580 85.010000000000005
     x51 c_e_x921_ 1
     x51 c_u_x1065_ 1
     x51 c_u_x1209_ 1
     x51 c_u_x1353_ 1
     x52 x580 83.790000000000006
     x52 c_e_x922_ 1
     x52 c_u_x1066_ 1
     x52 c_u_x1210_ 1
     x52 c_u_x1354_ 1
     x53 x580 77.5
     x53 c_e_x923_ 1
     x53 c_u_x1067_ 1
     x53 c_u_x1211_ 1
     x53 c_u_x1355_ 1
     x54 x580 79.879999999999995
     x54 c_e_x924_ 1
     x54 c_u_x1068_ 1
     x54 c_u_x1212_ 1
     x54 c_u_x1356_ 1
     x55 x580 83.560000000000002
     x55 c_e_x925_ 1
     x55 c_u_x1069_ 1
     x55 c_u_x1213_ 1
     x55 c_u_x1357_ 1
     x56 x580 78.430000000000007
     x56 c_e_x926_ 1
     x56 c_u_x1070_ 1
     x56 c_u_x1214_ 1
     x56 c_u_x1358_ 1
     x57 x580 82.569999999999993
     x57 c_e_x927_ 1
     x57 c_u_x1071_ 1
     x57 c_u_x1215_ 1
     x57 c_u_x1359_ 1
     x58 x580 80.760000000000005
     x58 c_e_x928_ 1
     x58 c_u_x1072_ 1
     x58 c_u_x1216_ 1
     x58 c_u_x1360_ 1
     x59 x580 77.640000000000001
     x59 c_e_x929_ 1
     x59 c_u_x1073_ 1
     x59 c_u_x1217_ 1
     x59 c_u_x1361_ 1
     x60 x580 70.480000000000004
     x60 c_e_x930_ 1
     x60 c_u_x1074_ 1
     x60 c_u_x1218_ 1
     x60 c_u_x1362_ 1
     x61 x580 69.939999999999998
     x61 c_e_x931_ 1
     x61 c_u_x1075_ 1
     x61 c_u_x1219_ 1
     x61 c_u_x1363_ 1
     x62 x580 77.799999999999997
     x62 c_e_x932_ 1
     x62 c_u_x1076_ 1
     x62 c_u_x1220_ 1
     x62 c_u_x1364_ 1
     x63 x580 78.810000000000002
     x63 c_e_x933_ 1
     x63 c_u_x1077_ 1
     x63 c_u_x1221_ 1
     x63 c_u_x1365_ 1
     x64 x580 85.290000000000006
     x64 c_e_x934_ 1
     x64 c_u_x1078_ 1
     x64 c_u_x1222_ 1
     x64 c_u_x1366_ 1
     x65 x580 105.51000000000001
     x65 c_e_x935_ 1
     x65 c_u_x1079_ 1
     x65 c_u_x1223_ 1
     x65 c_u_x1367_ 1
     x66 x580 116.66
     x66 c_e_x936_ 1
     x66 c_u_x1080_ 1
     x66 c_u_x1224_ 1
     x66 c_u_x1368_ 1
     x67 x580 115.06
     x67 c_e_x937_ 1
     x67 c_u_x1081_ 1
     x67 c_u_x1225_ 1
     x67 c_u_x1369_ 1
     x68 x580 114.91
     x68 c_e_x938_ 1
     x68 c_u_x1082_ 1
     x68 c_u_x1226_ 1
     x68 c_u_x1370_ 1
     x69 x580 113.3
     x69 c_e_x939_ 1
     x69 c_u_x1083_ 1
     x69 c_u_x1227_ 1
     x69 c_u_x1371_ 1
     x70 x580 107.8
     x70 c_e_x940_ 1
     x70 c_u_x1084_ 1
     x70 c_u_x1228_ 1
     x70 c_u_x1372_ 1
     x71 x580 98.219999999999999
     x71 c_e_x941_ 1
     x71 c_u_x1085_ 1
     x71 c_u_x1229_ 1
     x71 c_u_x1373_ 1
     x72 x580 88.569999999999993
     x72 c_e_x942_ 1
     x72 c_u_x1086_ 1
     x72 c_u_x1230_ 1
     x72 c_u_x1374_ 1
     x73 x580 -2.1600000000000001
     x73 c_e_x871_ -1
     x73 c_u_x1087_ 1
     x73 c_u_x1231_ 1
     x74 x580 -1.6000000000000001
     x74 c_e_x872_ -1
     x74 c_u_x1088_ 1
     x74 c_u_x1232_ 1
     x75 c_e_x873_ -1
     x75 c_u_x1089_ 1
     x75 c_u_x1233_ 1
     x76 c_e_x874_ -1
     x76 c_u_x1090_ 1
     x76 c_u_x1234_ 1
     x77 c_e_x875_ -1
     x77 c_u_x1091_ 1
     x77 c_u_x1235_ 1
     x78 c_e_x876_ -1
     x78 c_u_x1092_ 1
     x78 c_u_x1236_ 1
     x79 c_e_x877_ -1
     x79 c_u_x1093_ 1
     x79 c_u_x1237_ 1
     x80 c_e_x878_ -1
     x80 c_u_x1094_ 1
     x80 c_u_x1238_ 1
     x81 c_e_x879_ -1
     x81 c_u_x1095_ 1
     x81 c_u_x1239_ 1
     x82 c_e_x880_ -1
     x82 c_u_x1096_ 1
     x82 c_u_x1240_ 1
     x83 c_e_x881_ -1
     x83 c_u_x1097_ 1
     x83 c_u_x1241_ 1
     x84 c_e_x882_ -1
     x84 c_u_x1098_ 1
     x84 c_u_x1242_ 1
     x85 c_e_x883_ -1
     x85 c_u_x1099_ 1
     x85 c_u_x1243_ 1
     x86 c_e_x884_ -1
     x86 c_u_x1100_ 1
     x86 c_u_x1244_ 1
     x87 c_e_x885_ -1
     x87 c_u_x1101_ 1
     x87 c_u_x1245_ 1
     x88 c_e_x886_ -1
     x88 c_u_x1102_ 1
     x88 c_u_x1246_ 1
     x89 c_e_x887_ -1
     x89 c_u_x1103_ 1
     x89 c_u_x1247_ 1
     x90 x580 -0.070000000000000007
     x90 c_e_x888_ -1
     x90 c_u_x1104_ 1
     x90 c_u_x1248_ 1
     x91 x580 -1.01
     x91 c_e_x889_ -1
     x91 c_u_x1105_ 1
     x91 c_u_x1249_ 1
     x92 x580 -1.48
     x92 c_e_x890_ -1
     x92 c_u_x1106_ 1
     x92 c_u_x1250_ 1
     x93 x580 -1
     x93 c_e_x891_ -1
     x93 c_u_x1107_ 1
     x93 c_u_x1251_ 1
     x94 x580 -0.070000000000000007
     x94 c_e_x892_ -1
     x94 c_u_x1108_ 1
     x94 c_u_x1252_ 1
     x95 x580 -10.050000000000001
     x95 c_e_x893_ -1
     x95 c_u_x1109_ 1
     x95 c_u_x1253_ 1
     x96 x580 -7.0099999999999998
     x96 c_e_x894_ -1
     x96 c_u_x1110_ 1
     x96 c_u_x1254_ 1
     x97 x580 -2.5499999999999998
     x97 c_e_x895_ -1
     x97 c_u_x1111_ 1
     x97 c_u_x1255_ 1
     x98 x580 -1.5600000000000001
     x98 c_e_x896_ -1
     x98 c_u_x1112_ 1
     x98 c_u_x1256_ 1
     x99 x580 -3.4500000000000002
     x99 c_e_x897_ -1
     x99 c_u_x1113_ 1
     x99 c_u_x1257_ 1
     x100 x580 -7.0199999999999996
     x100 c_e_x898_ -1
     x100 c_u_x1114_ 1
     x100 c_u_x1258_ 1
     x101 x580 -12.75
     x101 c_e_x899_ -1
     x101 c_u_x1115_ 1
     x101 c_u_x1259_ 1
     x102 x580 -30.07
     x102 c_e_x900_ -1
     x102 c_u_x1116_ 1
     x102 c_u_x1260_ 1
     x103 x580 -67.129999999999995
     x103 c_e_x901_ -1
     x103 c_u_x1117_ 1
     x103 c_u_x1261_ 1
     x104 x580 -98.829999999999998
     x104 c_e_x902_ -1
     x104 c_u_x1118_ 1
     x104 c_u_x1262_ 1
     x105 x580 -121.53
     x105 c_e_x903_ -1
     x105 c_u_x1119_ 1
     x105 c_u_x1263_ 1
     x106 x580 -127.23
     x106 c_e_x904_ -1
     x106 c_u_x1120_ 1
     x106 c_u_x1264_ 1
     x107 x580 -126.34999999999999
     x107 c_e_x905_ -1
     x107 c_u_x1121_ 1
     x107 c_u_x1265_ 1
     x108 x580 -119.97
     x108 c_e_x906_ -1
     x108 c_u_x1122_ 1
     x108 c_u_x1266_ 1
     x109 x580 -115.95
     x109 c_e_x907_ -1
     x109 c_u_x1123_ 1
     x109 c_u_x1267_ 1
     x110 x580 -113.90000000000001
     x110 c_e_x908_ -1
     x110 c_u_x1124_ 1
     x110 c_u_x1268_ 1
     x111 x580 -122.20999999999999
     x111 c_e_x909_ -1
     x111 c_u_x1125_ 1
     x111 c_u_x1269_ 1
     x112 x580 -130.11000000000001
     x112 c_e_x910_ -1
     x112 c_u_x1126_ 1
     x112 c_u_x1270_ 1
     x113 x580 -138.59
     x113 c_e_x911_ -1
     x113 c_u_x1127_ 1
     x113 c_u_x1271_ 1
     x114 x580 -152.87
     x114 c_e_x912_ -1
     x114 c_u_x1128_ 1
     x114 c_u_x1272_ 1
     x115 x580 -152.94
     x115 c_e_x913_ -1
     x115 c_u_x1129_ 1
     x115 c_u_x1273_ 1
     x116 x580 -139.15000000000001
     x116 c_e_x914_ -1
     x116 c_u_x1130_ 1
     x116 c_u_x1274_ 1
     x117 x580 -130
     x117 c_e_x915_ -1
     x117 c_u_x1131_ 1
     x117 c_u_x1275_ 1
     x118 x580 -119.78
     x118 c_e_x916_ -1
     x118 c_u_x1132_ 1
     x118 c_u_x1276_ 1
     x119 x580 -113.42
     x119 c_e_x917_ -1
     x119 c_u_x1133_ 1
     x119 c_u_x1277_ 1
     x120 x580 -82.469999999999999
     x120 c_e_x918_ -1
     x120 c_u_x1134_ 1
     x120 c_u_x1278_ 1
     x121 x580 -99.560000000000002
     x121 c_e_x919_ -1
     x121 c_u_x1135_ 1
     x121 c_u_x1279_ 1
     x122 x580 -87.530000000000001
     x122 c_e_x920_ -1
     x122 c_u_x1136_ 1
     x122 c_u_x1280_ 1
     x123 x580 -85.010000000000005
     x123 c_e_x921_ -1
     x123 c_u_x1137_ 1
     x123 c_u_x1281_ 1
     x124 x580 -83.790000000000006
     x124 c_e_x922_ -1
     x124 c_u_x1138_ 1
     x124 c_u_x1282_ 1
     x125 x580 -77.5
     x125 c_e_x923_ -1
     x125 c_u_x1139_ 1
     x125 c_u_x1283_ 1
     x126 x580 -79.879999999999995
     x126 c_e_x924_ -1
     x126 c_u_x1140_ 1
     x126 c_u_x1284_ 1
     x127 x580 -83.560000000000002
     x127 c_e_x925_ -1
     x127 c_u_x1141_ 1
     x127 c_u_x1285_ 1
     x128 x580 -78.430000000000007
     x128 c_e_x926_ -1
     x128 c_u_x1142_ 1
     x128 c_u_x1286_ 1
     x129 x580 -82.569999999999993
     x129 c_e_x927_ -1
     x129 c_u_x1143_ 1
     x129 c_u_x1287_ 1
     x130 x580 -80.760000000000005
     x130 c_e_x928_ -1
     x130 c_u_x1144_ 1
     x130 c_u_x1288_ 1
     x131 x580 -77.640000000000001
     x131 c_e_x929_ -1
     x131 c_u_x1145_ 1
     x131 c_u_x1289_ 1
     x132 x580 -70.480000000000004
     x132 c_e_x930_ -1
     x132 c_u_x1146_ 1
     x132 c_u_x1290_ 1
     x133 x580 -69.939999999999998
     x133 c_e_x931_ -1
     x133 c_u_x1147_ 1
     x133 c_u_x1291_ 1
     x134 x580 -77.799999999999997
     x134 c_e_x932_ -1
     x134 c_u_x1148_ 1
     x134 c_u_x1292_ 1
     x135 x580 -78.810000000000002
     x135 c_e_x933_ -1
     x135 c_u_x1149_ 1
     x135 c_u_x1293_ 1
     x136 x580 -85.290000000000006
     x136 c_e_x934_ -1
     x136 c_u_x1150_ 1
     x136 c_u_x1294_ 1
     x137 x580 -105.51000000000001
     x137 c_e_x935_ -1
     x137 c_u_x1151_ 1
     x137 c_u_x1295_ 1
     x138 x580 -116.66
     x138 c_e_x936_ -1
     x138 c_u_x1152_ 1
     x138 c_u_x1296_ 1
     x139 x580 -115.06
     x139 c_e_x937_ -1
     x139 c_u_x1153_ 1
     x139 c_u_x1297_ 1
     x140 x580 -114.91
     x140 c_e_x938_ -1
     x140 c_u_x1154_ 1
     x140 c_u_x1298_ 1
     x141 x580 -113.3
     x141 c_e_x939_ -1
     x141 c_u_x1155_ 1
     x141 c_u_x1299_ 1
     x142 x580 -107.8
     x142 c_e_x940_ -1
     x142 c_u_x1156_ 1
     x142 c_u_x1300_ 1
     x143 x580 -98.219999999999999
     x143 c_e_x941_ -1
     x143 c_u_x1157_ 1
     x143 c_u_x1301_ 1
     x144 x580 -88.569999999999993
     x144 c_e_x942_ -1
     x144 c_u_x1158_ 1
     x144 c_u_x1302_ 1
     x145 c_u_x1015_ -10000
     x145 c_u_x1087_ 10000
     x146 c_u_x1016_ -10000
     x146 c_u_x1088_ 10000
     x147 c_u_x1017_ -10000
     x147 c_u_x1089_ 10000
     x148 c_u_x1018_ -10000
     x148 c_u_x1090_ 10000
     x149 c_u_x1019_ -10000
     x149 c_u_x1091_ 10000
     x150 c_u_x1020_ -10000
     x150 c_u_x1092_ 10000
     x151 c_u_x1021_ -10000
     x151 c_u_x1093_ 10000
     x152 c_u_x1022_ -10000
     x152 c_u_x1094_ 10000
     x153 c_u_x1023_ -10000
     x153 c_u_x1095_ 10000
     x154 c_u_x1024_ -10000
     x154 c_u_x1096_ 10000
     x155 c_u_x1025_ -10000
     x155 c_u_x1097_ 10000
     x156 c_u_x1026_ -10000
     x156 c_u_x1098_ 10000
     x157 c_u_x1027_ -10000
     x157 c_u_x1099_ 10000
     x158 c_u_x1028_ -10000
     x158 c_u_x1100_ 10000
     x159 c_u_x1029_ -10000
     x159 c_u_x1101_ 10000
     x160 c_u_x1030_ -10000
     x160 c_u_x1102_ 10000
     x161 c_u_x1031_ -10000
     x161 c_u_x1103_ 10000
     x162 c_u_x1032_ -10000
     x162 c_u_x1104_ 10000
     x163 c_u_x1033_ -10000
     x163 c_u_x1105_ 10000
     x164 c_u_x1034_ -10000
     x164 c_u_x1106_ 10000
     x165 c_u_x1035_ -10000
     x165 c_u_x1107_ 10000
     x166 c_u_x1036_ -10000
     x166 c_u_x1108_ 10000
     x167 c_u_x1037_ -10000
     x167 c_u_x1109_ 10000
     x168 c_u_x1038_ -10000
     x168 c_u_x1110_ 10000
     x169 c_u_x1039_ -10000
     x169 c_u_x1111_ 10000
     x170 c_u_x1040_ -10000
     x170 c_u_x1112_ 10000
     x171 c_u_x1041_ -10000
     x171 c_u_x1113_ 10000
     x172 c_u_x1042_ -10000
     x172 c_u_x1114_ 10000
     x173 c_u_x1043_ -10000
     x173 c_u_x1115_ 10000
     x174 c_u_x1044_ -10000
     x174 c_u_x1116_ 10000
     x175 c_u_x1045_ -10000
     x175 c_u_x1117_ 10000
     x176 c_u_x1046_ -10000
     x176 c_u_x1118_ 10000
     x177 c_u_x1047_ -10000
     x177 c_u_x1119_ 10000
     x178 c_u_x1048_ -10000
     x178 c_u_x1120_ 10000
     x179 c_u_x1049_ -10000
     x179 c_u_x1121_ 10000
     x180 c_u_x1050_ -10000
     x180 c_u_x1122_ 10000
     x181 c_u_x1051_ -10000
     x181 c_u_x1123_ 10000
     x182 c_u_x1052_ -10000
     x182 c_u_x1124_ 10000
     x183 c_u_x1053_ -10000
     x183 c_u_x1125_ 10000
     x184 c_u_x1054_ -10000
     x184 c_u_x1126_ 10000
     x185 c_u_x1055_ -10000
     x185 c_u_x1127_ 10000
     x186 c_u_x1056_ -10000
     x186 c_u_x1128_ 10000
     x187 c_u_x1057_ -10000
     x187 c_u_x1129_ 10000
     x188 c_u_x1058_ -10000
     x188 c_u_x1130_ 10000
     x189 c_u_x1059_ -10000
     x189 c_u_x1131_ 10000
     x190 c_u_x1060_ -10000
     x190 c_u_x1132_ 10000
     x191 c_u_x1061_ -10000
     x191 c_u_x1133_ 10000
     x192 c_u_x1062_ -10000
     x192 c_u_x1134_ 10000
     x193 c_u_x1063_ -10000
     x193 c_u_x1135_ 10000
     x194 c_u_x1064_ -10000
     x194 c_u_x1136_ 10000
     x195 c_u_x1065_ -10000
     x195 c_u_x1137_ 10000
     x196 c_u_x1066_ -10000
     x196 c_u_x1138_ 10000
     x197 c_u_x1067_ -10000
     x197 c_u_x1139_ 10000
     x198 c_u_x1068_ -10000
     x198 c_u_x1140_ 10000
     x199 c_u_x1069_ -10000
     x199 c_u_x1141_ 10000
     x200 c_u_x1070_ -10000
     x200 c_u_x1142_ 10000
     x201 c_u_x1071_ -10000
     x201 c_u_x1143_ 10000
     x202 c_u_x1072_ -10000
     x202 c_u_x1144_ 10000
     x203 c_u_x1073_ -10000
     x203 c_u_x1145_ 10000
     x204 c_u_x1074_ -10000
     x204 c_u_x1146_ 10000
     x205 c_u_x1075_ -10000
     x205 c_u_x1147_ 10000
     x206 c_u_x1076_ -10000
     x206 c_u_x1148_ 10000
     x207 c_u_x1077_ -10000
     x207 c_u_x1149_ 10000
     x208 c_u_x1078_ -10000
     x208 c_u_x1150_ 10000
     x209 c_u_x1079_ -10000
     x209 c_u_x1151_ 10000
     x210 c_u_x1080_ -10000
     x210 c_u_x1152_ 10000
     x211 c_u_x1081_ -10000
     x211 c_u_x1153_ 10000
     x212 c_u_x1082_ -10000
     x212 c_u_x1154_ 10000
     x213 c_u_x1083_ -10000
     x213 c_u_x1155_ 10000
     x214 c_u_x1084_ -10000
     x214 c_u_x1156_ 10000
     x215 c_u_x1085_ -10000
     x215 c_u_x1157_ 10000
     x216 c_u_x1086_ -10000
     x216 c_u_x1158_ 10000
     x217 x580 1000
     x217 c_e_x943_ -1
     x218 x580 1000
     x218 c_e_x944_ -1
     x219 x580 1000
     x219 c_e_x945_ -1
     x220 x580 1000
     x220 c_e_x946_ -1
     x221 x580 1000
     x221 c_e_x947_ -1
     x222 x580 1000
     x222 c_e_x948_ -1
     x223 x580 1000
     x223 c_e_x949_ -1
     x224 x580 1000
     x224 c_e_x950_ -1
     x225 x580 1000
     x225 c_e_x951_ -1
     x226 x580 1000
     x226 c_e_x952_ -1
     x227 x580 1000
     x227 c_e_x953_ -1
     x228 x580 1000
     x228 c_e_x954_ -1
     x229 x580 1000
     x229 c_e_x955_ -1
     x230 x580 1000
     x230 c_e_x956_ -1
     x231 x580 1000
     x231 c_e_x957_ -1
     x232 x580 1000
     x232 c_e_x958_ -1
     x233 x580 1000
     x233 c_e_x959_ -1
     x234 x580 1000
     x234 c_e_x960_ -1
     x235 x580 1000
     x235 c_e_x961_ -1
     x236 x580 1000
     x236 c_e_x962_ -1
     x237 x580 1000
     x237 c_e_x963_ -1
     x238 x580 1000
     x238 c_e_x964_ -1
     x239 x580 1000
     x239 c_e_x965_ -1
     x240 x580 1000
     x240 c_e_x966_ -1
     x241 x580 1000
     x241 c_e_x967_ -1
     x242 x580 1000
     x242 c_e_x968_ -1
     x243 x580 1000
     x243 c_e_x969_ -1
     x244 x580 1000
     x244 c_e_x970_ -1
     x245 x580 1000
     x245 c_e_x971_ -1
     x246 x580 1000
     x246 c_e_x972_ -1
     x247 x580 1000
     x247 c_e_x973_ -1
     x248 x580 1000
     x248 c_e_x974_ -1
     x249 x580 1000
     x249 c_e_x975_ -1
     x250 x580 1000
     x250 c_e_x976_ -1
     x251 x580 1000
     x251 c_e_x977_ -1
     x252 x580 1000
     x252 c_e_x978_ -1
     x253 x580 1000
     x253 c_e_x979_ -1
     x254 x580 1000
     x254 c_e_x980_ -1
     x255 x580 1000
     x255 c_e_x981_ -1
     x256 x580 1000
     x256 c_e_x982_ -1
     x257 x580 1000
     x257 c_e_x983_ -1
     x258 x580 1000
     x258 c_e_x984_ -1
     x259 x580 1000
     x259 c_e_x985_ -1
     x260 x580 1000
     x260 c_e_x986_ -1
     x261 x580 1000
     x261 c_e_x987_ -1
     x262 x580 1000
     x262 c_e_x988_ -1
     x263 x580 1000
     x263 c_e_x989_ -1
     x264 x580 1000
     x264 c_e_x990_ -1
     x265 x580 1000
     x265 c_e_x991_ -1
     x266 x580 1000
     x266 c_e_x992_ -1
     x267 x580 1000
     x267 c_e_x993_ -1
     x268 x580 1000
     x268 c_e_x994_ -1
     x269 x580 1000
     x269 c_e_x995_ -1
     x270 x580 1000
     x270 c_e_x996_ -1
     x271 x580 1000
     x271 c_e_x997_ -1
     x272 x580 1000
     x272 c_e_x998_ -1
     x273 x580 1000
     x273 c_e_x999_ -1
     x274 x580 1000
     x274 c_e_x1000_ -1
     x275 x580 1000
     x275 c_e_x1001_ -1
     x276 x580 1000
     x276 c_e_x1002_ -1
     x277 x580 1000
     x277 c_e_x1003_ -1
     x278 x580 1000
     x278 c_e_x1004_ -1
     x279 x580 1000
     x279 c_e_x1005_ -1
     x280 x580 1000
     x280 c_e_x1006_ -1
     x281 x580 1000
     x281 c_e_x1007_ -1
     x282 x580 1000
     x282 c_e_x1008_ -1
     x283 x580 1000
     x283 c_e_x1009_ -1
     x284 x580 1000
     x284 c_e_x1010_ -1
     x285 x580 1000
     x285 c_e_x1011_ -1
     x286 x580 1000
     x286 c_e_x1012_ -1
     x287 x580 1000
     x287 c_e_x1013_ -1
     x288 x580 1000
     x288 c_e_x1014_ -1
     x289 c_u_x581_ 1
     x289 c_u_x653_ -1
     x289 c_e_x725_ 1
     x289 c_e_x943_ 1
     x290 c_u_x582_ 1
     x290 c_u_x654_ -1
     x290 c_e_x726_ 1
     x290 c_e_x944_ 1
     x291 c_u_x583_ 1
     x291 c_u_x655_ -1
     x291 c_e_x727_ 1
     x291 c_e_x945_ 1
     x292 c_u_x584_ 1
     x292 c_u_x656_ -1
     x292 c_e_x728_ 1
     x292 c_e_x946_ 1
     x293 c_u_x585_ 1
     x293 c_u_x657_ -1
     x293 c_e_x729_ 1
     x293 c_e_x947_ 1
     x294 c_u_x586_ 1
     x294 c_u_x658_ -1
     x294 c_e_x730_ 1
     x294 c_e_x948_ 1
     x295 c_u_x587_ 1
     x295 c_u_x659_ -1
     x295 c_e_x731_ 1
     x295 c_e_x949_ 1
     x296 c_u_x588_ 1
     x296 c_u_x660_ -1
     x296 c_e_x732_ 1
     x296 c_e_x950_ 1
     x297 c_u_x589_ 1
     x297 c_u_x661_ -1
     x297 c_e_x733_ 1
     x297 c_e_x951_ 1
     x298 c_u_x590_ 1
     x298 c_u_x662_ -1
     x298 c_e_x734_ 1
     x298 c_e_x952_ 1
     x299 c_u_x591_ 1
     x299 c_u_x663_ -1
     x299 c_e_x735_ 1
     x299 c_e_x953_ 1
     x300 c_u_x592_ 1
     x300 c_u_x664_ -1
     x300 c_e_x736_ 1
     x300 c_e_x954_ 1
     x301 c_u_x593_ 1
     x301 c_u_x665_ -1
     x301 c_e_x737_ 1
     x301 c_e_x955_ 1
     x302 c_u_x594_ 1
     x302 c_u_x666_ -1
     x302 c_e_x738_ 1
     x302 c_e_x956_ 1
     x303 c_u_x595_ 1
     x303 c_u_x667_ -1
     x303 c_e_x739_ 1
     x303 c_e_x957_ 1
     x304 c_u_x596_ 1
     x304 c_u_x668_ -1
     x304 c_e_x740_ 1
     x304 c_e_x958_ 1
     x305 c_u_x597_ 1
     x305 c_u_x669_ -1
     x305 c_e_x741_ 1
     x305 c_e_x959_ 1
     x306 c_u_x598_ 1
     x306 c_u_x670_ -1
     x306 c_e_x742_ 1
     x306 c_e_x960_ 1
     x307 c_u_x599_ 1
     x307 c_u_x671_ -1
     x307 c_e_x743_ 1
     x307 c_e_x961_ 1
     x308 c_u_x600_ 1
     x308 c_u_x672_ -1
     x308 c_e_x744_ 1
     x308 c_e_x962_ 1
     x309 c_u_x601_ 1
     x309 c_u_x673_ -1
     x309 c_e_x745_ 1
     x309 c_e_x963_ 1
     x310 c_u_x602_ 1
     x310 c_u_x674_ -1
     x310 c_e_x746_ 1
     x310 c_e_x964_ 1
     x311 c_u_x603_ 1
     x311 c_u_x675_ -1
     x311 c_e_x747_ 1
     x311 c_e_x965_ 1
     x312 c_u_x604_ 1
     x312 c_u_x676_ -1
     x312 c_e_x748_ 1
     x312 c_e_x966_ 1
     x313 c_u_x605_ 1
     x313 c_u_x677_ -1
     x313 c_e_x749_ 1
     x313 c_e_x967_ 1
     x314 c_u_x606_ 1
     x314 c_u_x678_ -1
     x314 c_e_x750_ 1
     x314 c_e_x968_ 1
     x315 c_u_x607_ 1
     x315 c_u_x679_ -1
     x315 c_e_x751_ 1
     x315 c_e_x969_ 1
     x316 c_u_x608_ 1
     x316 c_u_x680_ -1
     x316 c_e_x752_ 1
     x316 c_e_x970_ 1
     x317 c_u_x609_ 1
     x317 c_u_x681_ -1
     x317 c_e_x753_ 1
     x317 c_e_x971_ 1
     x318 c_u_x610_ 1
     x318 c_u_x682_ -1
     x318 c_e_x754_ 1
     x318 c_e_x972_ 1
     x319 c_u_x611_ 1
     x319 c_u_x683_ -1
     x319 c_e_x755_ 1
     x319 c_e_x973_ 1
     x320 c_u_x612_ 1
     x320 c_u_x684_ -1
     x320 c_e_x756_ 1
     x320 c_e_x974_ 1
     x321 c_u_x613_ 1
     x321 c_u_x685_ -1
     x321 c_e_x757_ 1
     x321 c_e_x975_ 1
     x322 c_u_x614_ 1
     x322 c_u_x686_ -1
     x322 c_e_x758_ 1
     x322 c_e_x976_ 1
     x323 c_u_x615_ 1
     x323 c_u_x687_ -1
     x323 c_e_x759_ 1
     x323 c_e_x977_ 1
     x324 c_u_x616_ 1
     x324 c_u_x688_ -1
     x324 c_e_x760_ 1
     x324 c_e_x978_ 1
     x325 c_u_x617_ 1
     x325 c_u_x689_ -1
     x325 c_e_x761_ 1
     x325 c_e_x979_ 1
     x326 c_u_x618_ 1
     x326 c_u_x690_ -1
     x326 c_e_x762_ 1
     x326 c_e_x980_ 1
     x327 c_u_x619_ 1
     x327 c_u_x691_ -1
     x327 c_e_x763_ 1
     x327 c_e_x981_ 1
     x328 c_u_x620_ 1
     x328 c_u_x692_ -1
     x328 c_e_x764_ 1
     x328 c_e_x982_ 1
     x329 c_u_x621_ 1
     x329 c_u_x693_ -1
     x329 c_e_x765_ 1
     x329 c_e_x983_ 1
     x330 c_u_x622_ 1
     x330 c_u_x694_ -1
     x330 c_e_x766_ 1
     x330 c_e_x984_ 1
     x331 c_u_x623_ 1
     x331 c_u_x695_ -1
     x331 c_e_x767_ 1
     x331 c_e_x985_ 1
     x332 c_u_x624_ 1
     x332 c_u_x696_ -1
     x332 c_e_x768_ 1
     x332 c_e_x986_ 1
     x333 c_u_x625_ 1
     x333 c_u_x697_ -1
     x333 c_e_x769_ 1
     x333 c_e_x987_ 1
     x334 c_u_x626_ 1
     x334 c_u_x698_ -1
     x334 c_e_x770_ 1
     x334 c_e_x988_ 1
     x335 c_u_x627_ 1
     x335 c_u_x699_ -1
     x335 c_e_x771_ 1
     x335 c_e_x989_ 1
     x336 c_u_x628_ 1
     x336 c_u_x700_ -1
     x336 c_e_x772_ 1
     x336 c_e_x990_ 1
     x337 c_u_x629_ 1
     x337 c_u_x701_ -1
     x337 c_e_x773_ 1
     x337 c_e_x991_ 1
     x338 c_u_x630_ 1
     x338 c_u_x702_ -1
     x338 c_e_x774_ 1
     x338 c_e_x992_ 1
     x339 c_u_x631_ 1
     x339 c_u_x703_ -1
     x339 c_e_x775_ 1
     x339 c_e_x993_ 1
     x340 c_u_x632_ 1
     x340 c_u_x704_ -1
     x340 c_e_x776_ 1
     x340 c_e_x994_ 1
     x341 c_u_x633_ 1
     x341 c_u_x705_ -1
     x341 c_e_x777_ 1
     x341 c_e_x995_ 1
     x342 c_u_x634_ 1
     x342 c_u_x706_ -1
     x342 c_e_x778_ 1
     x342 c_e_x996_ 1
     x343 c_u_x635_ 1
     x343 c_u_x707_ -1
     x343 c_e_x779_ 1
     x343 c_e_x997_ 1
     x344 c_u_x636_ 1
     x344 c_u_x708_ -1
     x344 c_e_x780_ 1
     x344 c_e_x998_ 1
     x345 c_u_x637_ 1
     x345 c_u_x709_ -1
     x345 c_e_x781_ 1
     x345 c_e_x999_ 1
     x346 c_u_x638_ 1
     x346 c_u_x710_ -1
     x346 c_e_x782_ 1
     x346 c_e_x1000_ 1
     x347 c_u_x639_ 1
     x347 c_u_x711_ -1
     x347 c_e_x783_ 1
     x347 c_e_x1001_ 1
     x348 c_u_x640_ 1
     x348 c_u_x712_ -1
     x348 c_e_x784_ 1
     x348 c_e_x1002_ 1
     x349 c_u_x641_ 1
     x349 c_u_x713_ -1
     x349 c_e_x785_ 1
     x349 c_e_x1003_ 1
     x350 c_u_x642_ 1
     x350 c_u_x714_ -1
     x350 c_e_x786_ 1
     x350 c_e_x1004_ 1
     x351 c_u_x643_ 1
     x351 c_u_x715_ -1
     x351 c_e_x787_ 1
     x351 c_e_x1005_ 1
     x352 c_u_x644_ 1
     x352 c_u_x716_ -1
     x352 c_e_x788_ 1
     x352 c_e_x1006_ 1
     x353 c_u_x645_ 1
     x353 c_u_x717_ -1
     x353 c_e_x789_ 1
     x353 c_e_x1007_ 1
     x354 c_u_x646_ 1
     x354 c_u_x718_ -1
     x354 c_e_x790_ 1
     x354 c_e_x1008_ 1
     x355 c_u_x647_ 1
     x355 c_u_x719_ -1
     x355 c_e_x791_ 1
     x355 c_e_x1009_ 1
     x356 c_u_x648_ 1
     x356 c_u_x720_ -1
     x356 c_e_x792_ 1
     x356 c_e_x1010_ 1
     x357 c_u_x649_ 1
     x357 c_u_x721_ -1
     x357 c_e_x793_ 1
     x357 c_e_x1011_ 1
     x358 c_u_x650_ 1
     x358 c_u_x722_ -1
     x358 c_e_x794_ 1
     x358 c_e_x1012_ 1
     x359 c_u_x651_ 1
     x359 c_u_x723_ -1
     x359 c_e_x795_ 1
     x359 c_e_x1013_ 1
     x360 c_u_x652_ 1
     x360 c_u_x724_ -1
     x360 c_e_x796_ 1
     x360 c_e_x1014_ 1
     x361 c_e_x725_ -1
     x361 c_e_x871_ -0.1675885585434197
     x362 c_e_x726_ -1
     x362 c_e_x872_ -0.1675885585434197
     x363 c_e_x727_ -1
     x363 c_e_x873_ -0.1675885585434197
     x364 c_e_x728_ -1
     x364 c_e_x874_ -0.1675885585434197
     x365 c_e_x729_ -1
     x365 c_e_x875_ -0.1675885585434197
     x366 c_e_x730_ -1
     x366 c_e_x876_ -0.1675885585434197
     x367 c_e_x731_ -1
     x367 c_e_x877_ -0.1675885585434197
     x368 c_e_x732_ -1
     x368 c_e_x878_ -0.1675885585434197
     x369 c_e_x733_ -1
     x369 c_e_x879_ -0.1675885585434197
     x370 c_e_x734_ -1
     x370 c_e_x880_ -0.1675885585434197
     x371 c_e_x735_ -1
     x371 c_e_x881_ -0.1675885585434197
     x372 c_e_x736_ -1
     x372 c_e_x882_ -0.1675885585434197
     x373 c_e_x737_ -1
     x373 c_e_x883_ -0.1675885585434197
     x374 c_e_x738_ -1
     x374 c_e_x884_ -0.1675885585434197
     x375 c_e_x739_ -1
     x375 c_e_x885_ -0.1675885585434197
     x376 c_e_x740_ -1
     x376 c_e_x886_ -0.1675885585434197
     x377 c_e_x741_ -1
     x377 c_e_x887_ -0.1675885585434197
     x378 c_e_x742_ -1
     x378 c_e_x888_ -0.1675885585434197
     x379 c_e_x743_ -1
     x379 c_e_x889_ -0.1675885585434197
     x380 c_e_x744_ -1
     x380 c_e_x890_ -0.1675885585434197
     x381 c_e_x745_ -1
     x381 c_e_x891_ -0.1675885585434197
     x382 c_e_x746_ -1
     x382 c_e_x892_ -0.1675885585434197
     x383 c_e_x747_ -1
     x383 c_e_x893_ -0.1675885585434197
     x384 c_e_x748_ -1
     x384 c_e_x894_ -0.1675885585434197
     x385 c_e_x749_ -1
     x385 c_e_x895_ -0.1675885585434197
     x386 c_e_x750_ -1
     x386 c_e_x896_ -0.1675885585434197
     x387 c_e_x751_ -1
     x387 c_e_x897_ -0.1675885585434197
     x388 c_e_x752_ -1
     x388 c_e_x898_ -0.1675885585434197
     x389 c_e_x753_ -1
     x389 c_e_x899_ -0.1675885585434197
     x390 c_e_x754_ -1
     x390 c_e_x900_ -0.1675885585434197
     x391 c_e_x755_ -1
     x391 c_e_x901_ -0.1675885585434197
     x392 c_e_x756_ -1
     x392 c_e_x902_ -0.1675885585434197
     x393 c_e_x757_ -1
     x393 c_e_x903_ -0.1675885585434197
     x394 c_e_x758_ -1
     x394 c_e_x904_ -0.1675885585434197
     x395 c_e_x759_ -1
     x395 c_e_x905_ -0.1675885585434197
     x396 c_e_x760_ -1
     x396 c_e_x906_ -0.1675885585434197
     x397 c_e_x761_ -1
     x397 c_e_x907_ -0.1675885585434197
     x398 c_e_x762_ -1
     x398 c_e_x908_ -0.1675885585434197
     x399 c_e_x763_ -1
     x399 c_e_x909_ -0.1675885585434197
     x400 c_e_x764_ -1
     x400 c_e_x910_ -0.1675885585434197
     x401 c_e_x765_ -1
     x401 c_e_x911_ -0.1675885585434197
     x402 c_e_x766_ -1
     x402 c_e_x912_ -0.1675885585434197
     x403 c_e_x767_ -1
     x403 c_e_x913_ -0.1675885585434197
     x404 c_e_x768_ -1
     x404 c_e_x914_ -0.1675885585434197
     x405 c_e_x769_ -1
     x405 c_e_x915_ -0.1675885585434197
     x406 c_e_x770_ -1
     x406 c_e_x916_ -0.1675885585434197
     x407 c_e_x771_ -1
     x407 c_e_x917_ -0.1675885585434197
     x408 c_e_x772_ -1
     x408 c_e_x918_ -0.1675885585434197
     x409 c_e_x773_ -1
     x409 c_e_x919_ -0.1675885585434197
     x410 c_e_x774_ -1
     x410 c_e_x920_ -0.1675885585434197
     x411 c_e_x775_ -1
     x411 c_e_x921_ -0.1675885585434197
     x412 c_e_x776_ -1
     x412 c_e_x922_ -0.1675885585434197
     x413 c_e_x777_ -1
     x413 c_e_x923_ -0.1675885585434197
     x414 c_e_x778_ -1
     x414 c_e_x924_ -0.1675885585434197
     x415 c_e_x779_ -1
     x415 c_e_x925_ -0.1675885585434197
     x416 c_e_x780_ -1
     x416 c_e_x926_ -0.1675885585434197
     x417 c_e_x781_ -1
     x417 c_e_x927_ -0.1675885585434197
     x418 c_e_x782_ -1
     x418 c_e_x928_ -0.1675885585434197
     x419 c_e_x783_ -1
     x419 c_e_x929_ -0.1675885585434197
     x420 c_e_x784_ -1
     x420 c_e_x930_ -0.1675885585434197
     x421 c_e_x785_ -1
     x421 c_e_x931_ -0.1675885585434197
     x422 c_e_x786_ -1
     x422 c_e_x932_ -0.1675885585434197
     x423 c_e_x787_ -1
     x423 c_e_x933_ -0.1675885585434197
     x424 c_e_x788_ -1
     x424 c_e_x934_ -0.1675885585434197
     x425 c_e_x789_ -1
     x425 c_e_x935_ -0.1675885585434197
     x426 c_e_x790_ -1
     x426 c_e_x936_ -0.1675885585434197
     x427 c_e_x791_ -1
     x427 c_e_x937_ -0.1675885585434197
     x428 c_e_x792_ -1
     x428 c_e_x938_ -0.1675885585434197
     x429 c_e_x793_ -1
     x429 c_e_x939_ -0.1675885585434197
     x430 c_e_x794_ -1
     x430 c_e_x940_ -0.1675885585434197
     x431 c_e_x795_ -1
     x431 c_e_x941_ -0.1675885585434197
     x432 c_e_x796_ -1
     x432 c_e_x942_ -0.1675885585434197
     x433 c_e_x725_ -1
     x433 c_e_x871_ -0.2857142857142857
     x434 c_e_x726_ -1
     x434 c_e_x872_ -0.2857142857142857
     x435 c_e_x727_ -1
     x435 c_e_x873_ -0.2857142857142857
     x436 c_e_x728_ -1
     x436 c_e_x874_ -0.2857142857142857
     x437 c_e_x729_ -1
     x437 c_e_x875_ -0.2857142857142857
     x438 c_e_x730_ -1
     x438 c_e_x876_ -0.2857142857142857
     x439 c_e_x731_ -1
     x439 c_e_x877_ -0.2857142857142857
     x440 c_e_x732_ -1
     x440 c_e_x878_ -0.2857142857142857
     x441 c_e_x733_ -1
     x441 c_e_x879_ -0.2857142857142857
     x442 c_e_x734_ -1
     x442 c_e_x880_ -0.2857142857142857
     x443 c_e_x735_ -1
     x443 c_e_x881_ -0.2857142857142857
     x444 c_e_x736_ -1
     x444 c_e_x882_ -0.2857142857142857
     x445 c_e_x737_ -1
     x445 c_e_x883_ -0.2857142857142857
     x446 c_e_x738_ -1
     x446 c_e_x884_ -0.2857142857142857
     x447 c_e_x739_ -1
     x447 c_e_x885_ -0.2857142857142857
     x448 c_e_x740_ -1
     x448 c_e_x886_ -0.2857142857142857
     x449 c_e_x741_ -1
     x449 c_e_x887_ -0.2857142857142857
     x450 c_e_x742_ -1
     x450 c_e_x888_ -0.2857142857142857
     x451 c_e_x743_ -1
     x451 c_e_x889_ -0.2857142857142857
     x452 c_e_x744_ -1
     x452 c_e_x890_ -0.2857142857142857
     x453 c_e_x745_ -1
     x453 c_e_x891_ -0.2857142857142857
     x454 c_e_x746_ -1
     x454 c_e_x892_ -0.2857142857142857
     x455 c_e_x747_ -1
     x455 c_e_x893_ -0.2857142857142857
     x456 c_e_x748_ -1
     x456 c_e_x894_ -0.2857142857142857
     x457 c_e_x749_ -1
     x457 c_e_x895_ -0.2857142857142857
     x458 c_e_x750_ -1
     x458 c_e_x896_ -0.2857142857142857
     x459 c_e_x751_ -1
     x459 c_e_x897_ -0.2857142857142857
     x460 c_e_x752_ -1
     x460 c_e_x898_ -0.2857142857142857
     x461 c_e_x753_ -1
     x461 c_e_x899_ -0.2857142857142857
     x462 c_e_x754_ -1
     x462 c_e_x900_ -0.2857142857142857
     x463 c_e_x755_ -1
     x463 c_e_x901_ -0.2857142857142857
     x464 c_e_x756_ -1
     x464 c_e_x902_ -0.2857142857142857
     x465 c_e_x757_ -1
     x465 c_e_x903_ -0.2857142857142857
     x466 c_e_x758_ -1
     x466 c_e_x904_ -0.2857142857142857
     x467 c_e_x759_ -1
     x467 c_e_x905_ -0.2857142857142857
     x468 c_e_x760_ -1
     x468 c_e_x906_ -0.2857142857142857
     x469 c_e_x761_ -1
     x469 c_e_x907_ -0.2857142857142857
     x470 c_e_x762_ -1
     x470 c_e_x908_ -0.2857142857142857
     x471 c_e_x763_ -1
     x471 c_e_x909_ -0.2857142857142857
     x472 c_e_x764_ -1
     x472 c_e_x910_ -0.2857142857142857
     x473 c_e_x765_ -1
     x473 c_e_x911_ -0.2857142857142857
     x474 c_e_x766_ -1
     x474 c_e_x912_ -0.2857142857142857
     x475 c_e_x767_ -1
     x475 c_e_x913_ -0.2857142857142857
     x476 c_e_x768_ -1
     x476 c_e_x914_ -0.2857142857142857
     x477 c_e_x769_ -1
     x477 c_e_x915_ -0.2857142857142857
     x478 c_e_x770_ -1
     x478 c_e_x916_ -0.2857142857142857
     x479 c_e_x771_ -1
     x479 c_e_x917_ -0.2857142857142857
     x480 c_e_x772_ -1
     x480 c_e_x918_ -0.2857142857142857
     x481 c_e_x773_ -1
     x481 c_e_x919_ -0.2857142857142857
     x482 c_e_x774_ -1
     x482 c_e_x920_ -0.2857142857142857
     x483 c_e_x775_ -1
     x483 c_e_x921_ -0.2857142857142857
     x484 c_e_x776_ -1
     x484 c_e_x922_ -0.2857142857142857
     x485 c_e_x777_ -1
     x485 c_e_x923_ -0.2857142857142857
     x486 c_e_x778_ -1
     x486 c_e_x924_ -0.2857142857142857
     x487 c_e_x779_ -1
     x487 c_e_x925_ -0.2857142857142857
     x488 c_e_x780_ -1
     x488 c_e_x926_ -0.2857142857142857
     x489 c_e_x781_ -1
     x489 c_e_x927_ -0.2857142857142857
     x490 c_e_x782_ -1
     x490 c_e_x928_ -0.2857142857142857
     x491 c_e_x783_ -1
     x491 c_e_x929_ -0.2857142857142857
     x492 c_e_x784_ -1
     x492 c_e_x930_ -0.2857142857142857
     x493 c_e_x785_ -1
     x493 c_e_x931_ -0.2857142857142857
     x494 c_e_x786_ -1
     x494 c_e_x932_ -0.2857142857142857
     x495 c_e_x787_ -1
     x495 c_e_x933_ -0.2857142857142857
     x496 c_e_x788_ -1
     x496 c_e_x934_ -0.2857142857142857
     x497 c_e_x789_ -1
     x497 c_e_x935_ -0.2857142857142857
     x498 c_e_x790_ -1
     x498 c_e_x936_ -0.2857142857142857
     x499 c_e_x791_ -1
     x499 c_e_x937_ -0.2857142857142857
     x500 c_e_x792_ -1
     x500 c_e_x938_ -0.2857142857142857
     x501 c_e_x793_ -1
     x501 c_e_x939_ -0.2857142857142857
     x502 c_e_x794_ -1
     x502 c_e_x940_ -0.2857142857142857
     x503 c_e_x795_ -1
     x503 c_e_x941_ -0.2857142857142857
     x504 c_e_x796_ -1
     x504 c_e_x942_ -0.2857142857142857
     x505 c_u_x581_ -12
     x505 c_u_x799_ 1
     x506 c_u_x582_ -12
     x506 c_u_x800_ 1
     x507 c_u_x583_ -12
     x507 c_u_x801_ 1
     x508 c_u_x584_ -12
     x508 c_u_x802_ 1
     x509 c_u_x585_ -12
     x509 c_u_x803_ 1
     x510 c_u_x586_ -12
     x510 c_u_x804_ 1
     x511 c_u_x587_ -12
     x511 c_u_x805_ 1
     x512 c_u_x588_ -12
     x512 c_u_x806_ 1
     x513 c_u_x589_ -12
     x513 c_u_x807_ 1
     x514 c_u_x590_ -12
     x514 c_u_x808_ 1
     x515 c_u_x591_ -12
     x515 c_u_x809_ 1
     x516 c_u_x592_ -12
     x516 c_u_x810_ 1
     x517 c_u_x593_ -12
     x517 c_u_x811_ 1
     x518 c_u_x594_ -12
     x518 c_u_x812_ 1
     x519 c_u_x595_ -12
     x519 c_u_x813_ 1
     x520 c_u_x596_ -12
     x520 c_u_x814_ 1
     x521 c_u_x597_ -12
     x521 c_u_x815_ 1
     x522 c_u_x598_ -12
     x522 c_u_x816_ 1
     x523 c_u_x599_ -12
     x523 c_u_x817_ 1
     x524 c_u_x600_ -12
     x524 c_u_x818_ 1
     x525 c_u_x601_ -12
     x525 c_u_x819_ 1
     x526 c_u_x602_ -12
     x526 c_u_x820_ 1
     x527 c_u_x603_ -12
     x527 c_u_x821_ 1
     x528 c_u_x604_ -12
     x528 c_u_x822_ 1
     x529 c_u_x605_ -12
     x529 c_u_x823_ 1
     x530 c_u_x606_ -12
     x530 c_u_x824_ 1
     x531 c_u_x607_ -12
     x531 c_u_x825_ 1
     x532 c_u_x608_ -12
     x532 c_u_x826_ 1
     x533 c_u_x609_ -12
     x533 c_u_x827_ 1
     x534 c_u_x610_ -12
     x534 c_u_x828_ 1
     x535 c_u_x611_ -12
     x535 c_u_x829_ 1
     x536 c_u_x612_ -12
     x536 c_u_x830_ 1
     x537 c_u_x613_ -12
     x537 c_u_x831_ 1
     x538 c_u_x614_ -12
     x538 c_u_x832_ 1
     x539 c_u_x615_ -12
     x539 c_u_x833_ 1
     x540 c_u_x616_ -12
     x540 c_u_x834_ 1
     x541 c_u_x617_ -12
     x541 c_u_x835_ 1
     x542 c_u_x618_ -12
     x542 c_u_x836_ 1
     x543 c_u_x619_ -12
     x543 c_u_x837_ 1
     x544 c_u_x620_ -12
     x544 c_u_x838_ 1
     x545 c_u_x621_ -12
     x545 c_u_x839_ 1
     x546 c_u_x622_ -12
     x546 c_u_x840_ 1
     x547 c_u_x623_ -12
     x547 c_u_x841_ 1
     x548 c_u_x624_ -12
     x548 c_u_x842_ 1
     x549 c_u_x625_ -12
     x549 c_u_x843_ 1
     x550 c_u_x626_ -12
     x550 c_u_x844_ 1
     x551 c_u_x627_ -12
     x551 c_u_x845_ 1
     x552 c_u_x628_ -12
     x552 c_u_x846_ 1
     x553 c_u_x629_ -12
     x553 c_u_x847_ 1
     x554 c_u_x630_ -12
     x554 c_u_x848_ 1
     x555 c_u_x631_ -12
     x555 c_u_x849_ 1
     x556 c_u_x632_ -12
     x556 c_u_x850_ 1
     x557 c_u_x633_ -12
     x557 c_u_x851_ 1
     x558 c_u_x634_ -12
     x558 c_u_x852_ 1
     x559 c_u_x635_ -12
     x559 c_u_x853_ 1
     x560 c_u_x636_ -12
     x560 c_u_x854_ 1
     x561 c_u_x637_ -12
     x561 c_u_x855_ 1
     x562 c_u_x638_ -12
     x562 c_u_x856_ 1
     x563 c_u_x639_ -12
     x563 c_u_x857_ 1
     x564 c_u_x640_ -12
     x564 c_u_x858_ 1
     x565 c_u_x641_ -12
     x565 c_u_x859_ 1
     x566 c_u_x642_ -12
     x566 c_u_x860_ 1
     x567 c_u_x643_ -12
     x567 c_u_x861_ 1
     x568 c_u_x644_ -12
     x568 c_u_x862_ 1
     x569 c_u_x645_ -12
     x569 c_u_x863_ 1
     x570 c_u_x646_ -12
     x570 c_u_x864_ 1
     x571 c_u_x647_ -12
     x571 c_u_x865_ 1
     x572 c_u_x648_ -12
     x572 c_u_x866_ 1
     x573 c_u_x649_ -12
     x573 c_u_x867_ 1
     x574 c_u_x650_ -12
     x574 c_u_x868_ 1
     x575 c_u_x651_ -12
     x575 c_u_x869_ 1
     x576 c_u_x652_ -12
     x576 c_u_x870_ 1
     x579 c_u_x1303_ -1
     x579 c_u_x1304_ -1
     x579 c_u_x1305_ -1
     x579 c_u_x1306_ -1
     x579 c_u_x1307_ -1
     x579 c_u_x1308_ -1
     x579 c_u_x1309_ -1
     x579 c_u_x1310_ -1
     x579 c_u_x1311_ -1
     x579 c_u_x1312_ -1
     x579 c_u_x1313_ -1
     x579 c_u_x1314_ -1
     x579 c_u_x1315_ -1
     x579 c_u_x1316_ -1
     x579 c_u_x1317_ -1
     x579 c_u_x1318_ -1
     x579 c_u_x1319_ -1
     x579 c_u_x1320_ -1
     x579 c_u_x1321_ -1
     x579 c_u_x1322_ -1
     x579 c_u_x1323_ -1
     x579 c_u_x1324_ -1
     x579 c_u_x1325_ -1
     x579 c_u_x1326_ -1
     x579 c_u_x1327_ -1
     x579 c_u_x1328_ -1
     x579 c_u_x1329_ -1
     x579 c_u_x1330_ -1
     x579 c_u_x1331_ -1
     x579 c_u_x1332_ -1
     x579 c_u_x1333_ -1
     x579 c_u_x1334_ -1
     x579 c_u_x1335_ -1
     x579 c_u_x1336_ -1
     x579 c_u_x1337_ -1
     x579 c_u_x1338_ -1
     x579 c_u_x1339_ -1
     x579 c_u_x1340_ -1
     x579 c_u_x1341_ -1
     x579 c_u_x1342_ -1
     x579 c_u_x1343_ -1
     x579 c_u_x1344_ -1
     x579 c_u_x1345_ -1
     x579 c_u_x1346_ -1
     x579 c_u_x1347_ -1
     x579 c_u_x1348_ -1
     x579 c_u_x1349_ -1
     x579 c_u_x1350_ -1
     x579 c_u_x1351_ -1
     x579 c_u_x1352_ -1
     x579 c_u_x1353_ -1
     x579 c_u_x1354_ -1
     x579 c_u_x1355_ -1
     x579 c_u_x1356_ -1
     x579 c_u_x1357_ -1
     x579 c_u_x1358_ -1
     x579 c_u_x1359_ -1
     x579 c_u_x1360_ -1
     x579 c_u_x1361_ -1
     x579 c_u_x1362_ -1
     x579 c_u_x1363_ -1
     x579 c_u_x1364_ -1
     x579 c_u_x1365_ -1
     x579 c_u_x1366_ -1
     x579 c_u_x1367_ -1
     x579 c_u_x1368_ -1
     x579 c_u_x1369_ -1
     x579 c_u_x1370_ -1
     x579 c_u_x1371_ -1
     x579 c_u_x1372_ -1
     x579 c_u_x1373_ -1
     x579 c_u_x1374_ -1
RHS
     RHS c_u_x581_ 0
     RHS c_u_x582_ 0
     RHS c_u_x583_ 0
     RHS c_u_x584_ 0
     RHS c_u_x585_ 0
     RHS c_u_x586_ 0
     RHS c_u_x587_ 0
     RHS c_u_x588_ 0
     RHS c_u_x589_ 0
     RHS c_u_x590_ 0
     RHS c_u_x591_ 0
     RHS c_u_x592_ 0
     RHS c_u_x593_ 0
     RHS c_u_x594_ 0
     RHS c_u_x595_ 0
     RHS c_u_x596_ 0
     RHS c_u_x597_ 0
     RHS c_u_x598_ 0
     RHS c_u_x599_ 0
     RHS c_u_x600_ 0
     RHS c_u_x601_ 0
     RHS c_u_x602_ 0
     RHS c_u_x603_ 0
     RHS c_u_x604_ 0
     RHS c_u_x605_ 0
     RHS c_u_x606_ 0
     RHS c_u_x607_ 0
     RHS c_u_x608_ 0
     RHS c_u_x609_ 0
     RHS c_u_x610_ 0
     RHS c_u_x611_ 0
     RHS c_u_x612_ 0
     RHS c_u_x613_ 0
     RHS c_u_x614_ 0
     RHS c_u_x615_ 0
     RHS c_u_x616_ 0
     RHS c_u_x617_ 0
     RHS c_u_x618_ 0
     RHS c_u_x619_ 0
     RHS c_u_x620_ 0
     RHS c_u_x621_ 0
     RHS c_u_x622_ 0
     RHS c_u_x623_ 0
     RHS c_u_x624_ 0
     RHS c_u_x625_ 0
     RHS c_u_x626_ 0
     RHS c_u_x627_ 0
     RHS c_u_x628_ 0
     RHS c_u_x629_ 0
     RHS c_u_x630_ 0
     RHS c_u_x631_ 0
     RHS c_u_x632_ 0
     RHS c_u_x633_ 0
     RHS c_u_x634_ 0
     RHS c_u_x635_ 0
     RHS c_u_x636_ 0
     RHS c_u_x637_ 0
     RHS c_u_x638_ 0
     RHS c_u_x639_ 0
     RHS c_u_x640_ 0
     RHS c_u_x641_ 0
     RHS c_u_x642_ 0
     RHS c_u_x643_ 0
     RHS c_u_x644_ 0
     RHS c_u_x645_ 0
     RHS c_u_x646_ 0
     RHS c_u_x647_ 0
     RHS c_u_x648_ 0
     RHS c_u_x649_ 0
     RHS c_u_x650_ 0
     RHS c_u_x651_ 0
     RHS c_u_x652_ 0
     RHS c_u_x653_ 0
     RHS c_u_x654_ 0
     RHS c_u_x655_ 0
     RHS c_u_x656_ 0
     RHS c_u_x657_ 0
     RHS c_u_x658_ 0
     RHS c_u_x659_ 0
     RHS c_u_x660_ 0
     RHS c_u_x661_ 0
     RHS c_u_x662_ 0
     RHS c_u_x663_ 0
     RHS c_u_x664_ 0
     RHS c_u_x665_ 0
     RHS c_u_x666_ 0
     RHS c_u_x667_ 0
     RHS c_u_x668_ 0
     RHS c_u_x669_ 0
     RHS c_u_x670_ 0
     RHS c_u_x671_ 0
     RHS c_u_x672_ 0
     RHS c_u_x673_ 0
     RHS c_u_x674_ 0
     RHS c_u_x675_ 0
     RHS c_u_x676_ 0
     RHS c_u_x677_ 0
     RHS c_u_x678_ 0
     RHS c_u_x679_ 0
     RHS c_u_x680_ 0
     RHS c_u_x681_ 0
     RHS c_u_x682_ 0
     RHS c_u_x683_ 0
     RHS c_u_x684_ 0
     RHS c_u_x685_ 0
     RHS c_u_x686_ 0
     RHS c_u_x687_ 0
     RHS c_u_x688_ 0
     RHS c_u_x689_ 0
     RHS c_u_x690_ 0
     RHS c_u_x691_ 0
     RHS c_u_x692_ 0
     RHS c_u_x693_ 0
     RHS c_u_x694_ 0
     RHS c_u_x695_ 0
     RHS c_u_x696_ 0
     RHS c_u_x697_ 0
     RHS c_u_x698_ 0
     RHS c_u_x699_ 0
     RHS c_u_x700_ 0
     RHS c_u_x701_ 0
     RHS c_u_x702_ 0
     RHS c_u_x703_ 0
     RHS c_u_x704_ 0
     RHS c_u_x705_ 0
     RHS c_u_x706_ 0
     RHS c_u_x707_ 0
     RHS c_u_x708_ 0
     RHS c_u_x709_ 0
     RHS c_u_x710_ 0
     RHS c_u_x711_ 0
     RHS c_u_x712_ 0
     RHS c_u_x713_ 0
     RHS c_u_x714_ 0
     RHS c_u_x715_ 0
     RHS c_u_x716_ 0
     RHS c_u_x717_ 0
     RHS c_u_x718_ 0
     RHS c_u_x719_ 0
     RHS c_u_x720_ 0
     RHS c_u_x721_ 0
     RHS c_u_x722_ 0
     RHS c_u_x723_ 0
     RHS c_u_x724_ 0
     RHS c_e_x725_ 0
     RHS c_e_x726_ 0
     RHS c_e_x727_ 0
     RHS c_e_x728_ 0
     RHS c_e_x729_ 0
     RHS c_e_x730_ 0
     RHS c_e_x731_ 0
     RHS c_e_x732_ 0
     RHS c_e_x733_ 0
     RHS c_e_x734_ 0
     RHS c_e_x735_ 0
     RHS c_e_x736_ 0
     RHS c_e_x737_ 0
     RHS c_e_x738_ 0
     RHS c_e_x739_ 0
     RHS c_e_x740_ 0
     RHS c_e_x741_ 0
     RHS c_e_x742_ 0
     RHS c_e_x743_ 0
     RHS c_e_x744_ 0
     RHS c_e_x745_ 0
     RHS c_e_x746_ 0
     RHS c_e_x747_ 0
     RHS c_e_x748_ 0
     RHS c_e_x749_ 0
     RHS c_e_x750_ 0
     RHS c_e_x751_ 0
     RHS c_e_x752_ 0
     RHS c_e_x753_ 0
     RHS c_e_x754_ 0
     RHS c_e_x755_ 0
     RHS c_e_x756_ 0
     RHS c_e_x757_ 0
     RHS c_e_x758_ 0
     RHS c_e_x759_ 0
     RHS c_e_x760_ 0
     RHS c_e_x761_ 0
     RHS c_e_x762_ 0
     RHS c_e_x763_ 0
     RHS c_e_x764_ 0
     RHS c_e_x765_ 0
     RHS c_e_x766_ 0
     RHS c_e_x767_ 0
     RHS c_e_x768_ 0
     RHS c_e_x769_ 0
     RHS c_e_x770_ 0
     RHS c_e_x771_ 0
     RHS c_e_x772_ 0
     RHS c_e_x773_ 0
     RHS c_e_x774_ 0
     RHS c_e_x775_ 0
     RHS c_e_x776_ 0
     RHS c_e_x777_ 0
     RHS c_e_x778_ 0
     RHS c_e_x779_ 0
     RHS c_e_x780_ 0
     RHS c_e_x781_ 0
     RHS c_e_x782_ 0
     RHS c_e_x783_ 0
     RHS c_e_x784_ 0
     RHS c_e_x785_ 0
     RHS c_e_x786_ 0
     RHS c_e_x787_ 0
     RHS c_e_x788_ 0
     RHS c_e_x789_ 0
     RHS c_e_x790_ 0
     RHS c_e_x791_ 0
     RHS c_e_x792_ 0
     RHS c_e_x793_ 0
     RHS c_e_x794_ 0
     RHS c_e_x795_ 0
     RHS c_e_x796_ 0
     RHS c_u_x797_ 0
     RHS c_u_x798_ 12
     RHS c_u_x799_ 1
     RHS c_u_x800_ 1
     RHS c_u_x801_ 1
     RHS c_u_x802_ 1
     RHS c_u_x803_ 1
     RHS c_u_x804_ 1
     RHS c_u_x805_ 1
     RHS c_u_x806_ 1
     RHS c_u_x807_ 1
     RHS c_u_x808_ 1
     RHS c_u_x809_ 1
     RHS c_u_x810_ 1
     RHS c_u_x811_ 1
     RHS c_u_x812_ 1
     RHS c_u_x813_ 1
     RHS c_u_x814_ 1
     RHS c_u_x815_ 1
     RHS c_u_x816_ 1
     RHS c_u_x817_ 1
     RHS c_u_x818_ 1
     RHS c_u_x819_ 1
     RHS c_u_x820_ 1
     RHS c_u_x821_ 1
     RHS c_u_x822_ 1
     RHS c_u_x823_ 1
     RHS c_u_x824_ 1
     RHS c_u_x825_ 1
     RHS c_u_x826_ 1
     RHS c_u_x827_ 1
     RHS c_u_x828_ 1
     RHS c_u_x829_ 1
     RHS c_u_x830_ 1
     RHS c_u_x831_ 1
     RHS c_u_x832_ 1
     RHS c_u_x833_ 1
     RHS c_u_x834_ 1
     RHS c_u_x835_ 1
     RHS c_u_x836_ 1
     RHS c_u_x837_ 1
     RHS c_u_x838_ 1
     RHS c_u_x839_ 1
     RHS c_u_x840_ 1
     RHS c_u_x841_ 1
     RHS c_u_x842_ 1
     RHS c_u_x843_ 1
     RHS c_u_x844_ 1
     RHS c_u_x845_ 1
     RHS c_u_x846_ 1
     RHS c_u_x847_ 1
     RHS c_u_x848_ 1
     RHS c_u_x849_ 1
     RHS c_u_x850_ 1
     RHS c_u_x851_ 1
     RHS c_u_x852_ 1
     RHS c_u_x853_ 1
     RHS c_u_x854_ 1
     RHS c_u_x855_ 1
     RHS c_u_x856_ 1
     RHS c_u_x857_ 1
     RHS c_u_x858_ 1
     RHS c_u_x859_ 1
     RHS c_u_x860_ 1
     RHS c_u_x861_ 1
     RHS c_u_x862_ 1
     RHS c_u_x863_ 1
     RHS c_u_x864_ 1
     RHS c_u_x865_ 1
     RHS c_u_x866_ 1
     RHS c_u_x867_ 1
     RHS c_u_x868_ 1
     RHS c_u_x869_ 1
     RHS c_u_x870_ 1
     RHS c_e_x871_ 0
     RHS c_e_x872_ 0
     RHS c_e_x873_ 0
     RHS c_e_x874_ 0
     RHS c_e_x875_ 0
     RHS c_e_x876_ 0
     RHS c_e_x877_ 0
     RHS c_e_x878_ 0
     RHS c_e_x879_ 0
     RHS c_e_x880_ 0
     RHS c_e_x881_ 0
     RHS c_e_x882_ 0
     RHS c_e_x883_ 0
     RHS c_e_x884_ 0
     RHS c_e_x885_ 0
     RHS c_e_x886_ 0
     RHS c_e_x887_ 0
     RHS c_e_x888_ 0
     RHS c_e_x889_ 0
     RHS c_e_x890_ 0
     RHS c_e_x891_ 0
     RHS c_e_x892_ 0
     RHS c_e_x893_ 0
     RHS c_e_x894_ 0
     RHS c_e_x895_ 0
     RHS c_e_x896_ 0
     RHS c_e_x897_ 0
     RHS c_e_x898_ 0
     RHS c_e_x899_ 0
     RHS c_e_x900_ 0
     RHS c_e_x901_ 0
     RHS c_e_x902_ 0
     RHS c_e_x903_ 0
     RHS c_e_x904_ 0
     RHS c_e_x905_ 0
     RHS c_e_x906_ 0
     RHS c_e_x907_ 0
     RHS c_e_x908_ 0
     RHS c_e_x909_ 0
     RHS c_e_x910_ 0
     RHS c_e_x911_ 0
     RHS c_e_x912_ 0
     RHS c_e_x913_ 0
     RHS c_e_x914_ 0
     RHS c_e_x915_ 0
     RHS c_e_x916_ 0
     RHS c_e_x917_ 0
     RHS c_e_x918_ 0
     RHS c_e_x919_ 0
     RHS c_e_x920_ 0
     RHS c_e_x921_ 0
     RHS c_e_x922_ 0
     RHS c_e_x923_ 0
     RHS c_e_x924_ 0
     RHS c_e_x925_ 0
     RHS c_e_x926_ 0
     RHS c_e_x927_ 0
     RHS c_e_x928_ 0
     RHS c_e_x929_ 0
     RHS c_e_x930_ 0
     RHS c_e_x931_ 0
     RHS c_e_x932_ 0
     RHS c_e_x933_ 0
     RHS c_e_x934_ 0
     RHS c_e_x935_ 0
     RHS c_e_x936_ 0
     RHS c_e_x937_ 0
     RHS c_e_x938_ 0
     RHS c_e_x939_ 0
     RHS c_e_x940_ 0
     RHS c_e_x941_ 0
     RHS c_e_x942_ 0
     RHS c_e_x943_ 8.7514827866296194
     RHS c_e_x944_ 10.595972347737018
     RHS c_e_x945_ 9.2246402854794365
     RHS c_e_x946_ 9.5708776176169668
     RHS c_e_x947_ 10.879631690284828
     RHS c_e_x948_ 9.5635171885640045
     RHS c_e_x949_ 9.9460091972221178
     RHS c_e_x950_ 10.913748151648409
     RHS c_e_x951_ 9.7158917378352285
     RHS c_e_x952_ 10.164444396723649
     RHS c_e_x953_ 10.899080965534599
     RHS c_e_x954_ 9.8060940151018006
     RHS c_e_x955_ 10.30664544602495
     RHS c_e_x956_ 10.873795414840266
     RHS c_e_x957_ 9.8686838663674408
     RHS c_e_x958_ 10.405715782248862
     RHS c_e_x959_ 10.847576874859215
     RHS c_e_x960_ 9.9163940054908046
     RHS c_e_x961_ 10.478025192838057
     RHS c_e_x962_ 10.823070641955503
     RHS c_e_x963_ 9.954937211695988
     RHS c_e_x964_ 10.532636426490264
     RHS c_e_x965_ 10.800887099972119
     RHS c_e_x966_ 9.9872779483916556
     RHS c_e_x967_ 10.574975475659127
     RHS c_e_x968_ 10.781004244014852
     RHS c_e_x969_ 10.015132089110628
     RHS c_e_x970_ 10.608485971335762
     RHS c_e_x971_ 10.763211181616212
     RHS c_e_x972_ 10.039578913307977
     RHS c_e_x973_ 10.635455108336277
     RHS c_e_x974_ 10.747258045891048
     RHS c_e_x975_ 10.061342231442547
     RHS c_e_x976_ 10.657458698785483
     RHS c_e_x977_ 10.7329067888223
     RHS c_e_x978_ 10.080932399357051
     RHS c_e_x979_ 10.675615776766287
     RHS c_e_x980_ 10.719946430330966
     RHS c_e_x981_ 10.098723840579867
     RHS c_e_x982_ 10.690741480460549
     RHS c_e_x983_ 10.708195317731422
     RHS c_e_x984_ 10.115000159946842
     RHS c_e_x985_ 10.703442617769655
     RHS c_e_x986_ 10.69749884548413
     RHS c_e_x987_ 10.129981835867264
     RHS c_e_x988_ 10.714179468750737
     RHS c_e_x989_ 10.687725883931513
     RHS c_e_x990_ 10.143843998962607
     RHS c_e_x991_ 10.72330693641079
     RHS c_e_x992_ 10.678765150330356
     RHS c_e_x993_ 10.156728288710665
     RHS c_e_x994_ 10.731102650145235
     RHS c_e_x995_ 10.6705219518834
     RHS c_e_x996_ 10.168751021860594
     RHS c_e_x997_ 10.737786590525863
     RHS c_e_x998_ 10.662915409108594
     RHS c_e_x999_ 10.18000897943022
     RHS c_e_x1000_ 10.743535066122504
     RHS c_e_x1001_ 10.655876144176426
     RHS c_e_x1002_ 10.190583607027243
     RHS c_e_x1003_ 10.748490844376308
     RHS c_e_x1004_ 10.649344377049408
     RHS c_e_x1005_ 10.200544128556887
     RHS c_e_x1006_ 10.752770611644539
     RHS c_e_x1007_ 10.643268363903339
     RHS c_e_x1008_ 10.209949897562533
     RHS c_e_x1009_ 10.756470545417521
     RHS c_e_x1010_ 10.637603116781564
     RHS c_e_x1011_ 10.218852202125275
     RHS c_e_x1012_ 10.759670530657637
     RHS c_e_x1013_ 10.632309351984654
     RHS c_e_x1014_ 10.227295670571689
     RHS c_u_x1015_ 0
     RHS c_u_x1016_ 0
     RHS c_u_x1017_ 0
     RHS c_u_x1018_ 0
     RHS c_u_x1019_ 0
     RHS c_u_x1020_ 0
     RHS c_u_x1021_ 0
     RHS c_u_x1022_ 0
     RHS c_u_x1023_ 0
     RHS c_u_x1024_ 0
     RHS c_u_x1025_ 0
     RHS c_u_x1026_ 0
     RHS c_u_x1027_ 0
     RHS c_u_x1028_ 0
     RHS c_u_x1029_ 0
     RHS c_u_x1030_ 0
     RHS c_u_x1031_ 0
     RHS c_u_x1032_ 0
     RHS c_u_x1033_ 0
     RHS c_u_x1034_ 0
     RHS c_u_x1035_ 0
     RHS c_u_x1036_ 0
     RHS c_u_x1037_ 0
     RHS c_u_x1038_ 0
     RHS c_u_x1039_ 0
     RHS c_u_x1040_ 0
     RHS c_u_x1041_ 0
     RHS c_u_x1042_ 0
     RHS c_u_x1043_ 0
     RHS c_u_x1044_ 0
     RHS c_u_x1045_ 0
     RHS c_u_x1046_ 0
     RHS c_u_x1047_ 0
     RHS c_u_x1048_ 0
     RHS c_u_x1049_ 0
     RHS c_u_x1050_ 0
     RHS c_u_x1051_ 0
     RHS c_u_x1052_ 0
     RHS c_u_x1053_ 0
     RHS c_u_x1054_ 0
     RHS c_u_x1055_ 0
     RHS c_u_x1056_ 0
     RHS c_u_x1057_ 0
     RHS c_u_x1058_ 0
     RHS c_u_x1059_ 0
     RHS c_u_x1060_ 0
     RHS c_u_x1061_ 0
     RHS c_u_x1062_ 0
     RHS c_u_x1063_ 0
     RHS c_u_x1064_ 0
     RHS c_u_x1065_ 0
     RHS c_u_x1066_ 0
     RHS c_u_x1067_ 0
     RHS c_u_x1068_ 0
     RHS c_u_x1069_ 0
     RHS c_u_x1070_ 0
     RHS c_u_x1071_ 0
     RHS c_u_x1072_ 0
     RHS c_u_x1073_ 0
     RHS c_u_x1074_ 0
     RHS c_u_x1075_ 0
     RHS c_u_x1076_ 0
     RHS c_u_x1077_ 0
     RHS c_u_x1078_ 0
     RHS c_u_x1079_ 0
     RHS c_u_x1080_ 0
     RHS c_u_x1081_ 0
     RHS c_u_x1082_ 0
     RHS c_u_x1083_ 0
     RHS c_u_x1084_ 0
     RHS c_u_x1085_ 0
     RHS c_u_x1086_ 0
     RHS c_u_x1087_ 10000
     RHS c_u_x1088_ 10000
     RHS c_u_x1089_ 10000
     RHS c_u_x1090_ 10000
     RHS c_u_x1091_ 10000
     RHS c_u_x1092_ 10000
     RHS c_u_x1093_ 10000
     RHS c_u_x1094_ 10000
     RHS c_u_x1095_ 10000
     RHS c_u_x1096_ 10000
     RHS c_u_x1097_ 10000
     RHS c_u_x1098_ 10000
     RHS c_u_x1099_ 10000
     RHS c_u_x1100_ 10000
     RHS c_u_x1101_ 10000
     RHS c_u_x1102_ 10000
     RHS c_u_x1103_ 10000
     RHS c_u_x1104_ 10000
     RHS c_u_x1105_ 10000
     RHS c_u_x1106_ 10000
     RHS c_u_x1107_ 10000
     RHS c_u_x1108_ 10000
     RHS c_u_x1109_ 10000
     RHS c_u_x1110_ 10000
     RHS c_u_x1111_ 10000
     RHS c_u_x1112_ 10000
     RHS c_u_x1113_ 10000
     RHS c_u_x1114_ 10000
     RHS c_u_x1115_ 10000
     RHS c_u_x1116_ 10000
     RHS c_u_x1117_ 10000
     RHS c_u_x1118_ 10000
     RHS c_u_x1119_ 10000
     RHS c_u_x1120_ 10000
     RHS c_u_x1121_ 10000
     RHS c_u_x1122_ 10000
     RHS c_u_x1123_ 10000
     RHS c_u_x1124_ 10000
     RHS c_u_x1125_ 10000
     RHS c_u_x1126_ 10000
     RHS c_u_x1127_ 10000
     RHS c_u_x1128_ 10000
     RHS c_u_x1129_ 10000
     RHS c_u_x1130_ 10000
     RHS c_u_x1131_ 10000
     RHS c_u_x1132_ 10000
     RHS c_u_x1133_ 10000
     RHS c_u_x1134_ 10000
     RHS c_u_x1135_ 10000
     RHS c_u_x1136_ 10000
     RHS c_u_x1137_ 10000
     RHS c_u_x1138_ 10000
     RHS c_u_x1139_ 10000
     RHS c_u_x1140_ 10000
     RHS c_u_x1141_ 10000
     RHS c_u_x1142_ 10000
     RHS c_u_x1143_ 10000
     RHS c_u_x1144_ 10000
     RHS c_u_x1145_ 10000
     RHS c_u_x1146_ 10000
     RHS c_u_x1147_ 10000
     RHS c_u_x1148_ 10000
     RHS c_u_x1149_ 10000
     RHS c_u_x1150_ 10000
     RHS c_u_x1151_ 10000
     RHS c_u_x1152_ 10000
     RHS c_u_x1153_ 10000
     RHS c_u_x1154_ 10000
     RHS c_u_x1155_ 10000
     RHS c_u_x1156_ 10000
     RHS c_u_x1157_ 10000
     RHS c_u_x1158_ 10000
     RHS c_u_x1159_ 20
     RHS c_u_x1160_ 20
     RHS c_u_x1161_ 20
     RHS c_u_x1162_ 20
     RHS c_u_x1163_ 20
     RHS c_u_x1164_ 20
     RHS c_u_x1165_ 20
     RHS c_u_x1166_ 20
     RHS c_u_x1167_ 20
     RHS c_u_x1168_ 20
     RHS c_u_x1169_ 20
     RHS c_u_x1170_ 20
     RHS c_u_x1171_ 20
     RHS c_u_x1172_ 20
     RHS c_u_x1173_ 20
     RHS c_u_x1174_ 20
     RHS c_u_x1175_ 20
     RHS c_u_x1176_ 20
     RHS c_u_x1177_ 20
     RHS c_u_x1178_ 20
     RHS c_u_x1179_ 20
     RHS c_u_x1180_ 20
     RHS c_u_x1181_ 20
     RHS c_u_x1182_ 20
     RHS c_u_x1183_ 20
     RHS c_u_x1184_ 20
     RHS c_u_x1185_ 20
     RHS c_u_x1186_ 20
     RHS c_u_x1187_ 20
     RHS c_u_x1188_ 20
     RHS c_u_x1189_ 20
     RHS c_u_x1190_ 20
     RHS c_u_x1191_ 20
     RHS c_u_x1192_ 20
     RHS c_u_x1193_ 20
     RHS c_u_x1194_ 20
     RHS c_u_x1195_ 20
     RHS c_u_x1196_ 20
     RHS c_u_x1197_ 20
     RHS c_u_x1198_ 20
     RHS c_u_x1199_ 20
     RHS c_u_x1200_ 20
     RHS c_u_x1201_ 20
     RHS c_u_x1202_ 20
     RHS c_u_x1203_ 20
     RHS c_u_x1204_ 20
     RHS c_u_x1205_ 20
     RHS c_u_x1206_ 20
     RHS c_u_x1207_ 20
     RHS c_u_x1208_ 20
     RHS c_u_x1209_ 20
     RHS c_u_x1210_ 20
     RHS c_u_x1211_ 20
     RHS c_u_x1212_ 20
     RHS c_u_x1213_ 20
     RHS c_u_x1214_ 20
     RHS c_u_x1215_ 20
     RHS c_u_x1216_ 20
     RHS c_u_x1217_ 20
     RHS c_u_x1218_ 20
     RHS c_u_x1219_ 20
     RHS c_u_x1220_ 20
     RHS c_u_x1221_ 20
     RHS c_u_x1222_ 20
     RHS c_u_x1223_ 20
     RHS c_u_x1224_ 20
     RHS c_u_x1225_ 20
     RHS c_u_x1226_ 20
     RHS c_u_x1227_ 20
     RHS c_u_x1228_ 20
     RHS c_u_x1229_ 20
     RHS c_u_x1230_ 20
     RHS c_u_x1231_ 0
     RHS c_u_x1232_ 0
     RHS c_u_x1233_ 0
     RHS c_u_x1234_ 0
     RHS c_u_x1235_ 0
     RHS c_u_x1236_ 0
     RHS c_u_x1237_ 0
     RHS c_u_x1238_ 0
     RHS c_u_x1239_ 0
     RHS c_u_x1240_ 0
     RHS c_u_x1241_ 0
     RHS c_u_x1242_ 0
     RHS c_u_x1243_ 0
     RHS c_u_x1244_ 0
     RHS c_u_x1245_ 0
     RHS c_u_x1246_ 0
     RHS c_u_x1247_ 0
     RHS c_u_x1248_ 0
     RHS c_u_x1249_ 0
     RHS c_u_x1250_ 0
     RHS c_u_x1251_ 0
     RHS c_u_x1252_ 0
     RHS c_u_x1253_ 0
     RHS c_u_x1254_ 0
     RHS c_u_x1255_ 0
     RHS c_u_x1256_ 0
     RHS c_u_x1257_ 0
     RHS c_u_x1258_ 0
     RHS c_u_x1259_ 0
     RHS c_u_x1260_ 0
     RHS c_u_x1261_ 0
     RHS c_u_x1262_ 0
     RHS c_u_x1263_ 0
     RHS c_u_x1264_ 0
     RHS c_u_x1265_ 0
     RHS c_u_x1266_ 0
     RHS c_u_x1267_ 0
     RHS c_u_x1268_ 0
     RHS c_u_x1269_ 0
     RHS c_u_x1270_ 0
     RHS c_u_x1271_ 0
     RHS c_u_x1272_ 0
     RHS c_u_x1273_ 0
     RHS c_u_x1274_ 0
     RHS c_u_x1275_ 0
     RHS c_u_x1276_ 0
     RHS c_u_x1277_ 0
     RHS c_u_x1278_ 0
     RHS c_u_x1279_ 0
     RHS c_u_x1280_ 0
     RHS c_u_x1281_ 0
     RHS c_u_x1282_ 0
     RHS c_u_x1283_ 0
     RHS c_u_x1284_ 0
     RHS c_u_x1285_ 0
     RHS c_u_x1286_ 0
     RHS c_u_x1287_ 0
     RHS c_u_x1288_ 0
     RHS c_u_x1289_ 0
     RHS c_u_x1290_ 0
     RHS c_u_x1291_ 0
     RHS c_u_x1292_ 0
     RHS c_u_x1293_ 0
     RHS c_u_x1294_ 0
     RHS c_u_x1295_ 0
     RHS c_u_x1296_ 0
     RHS c_u_x1297_ 0
     RHS c_u_x1298_ 0
     RHS c_u_x1299_ 0
     RHS c_u_x1300_ 0
     RHS c_u_x1301_ 0
     RHS c_u_x1302_ 0
     RHS c_u_x1303_ 0
     RHS c_u_x1304_ 0
     RHS c_u_x1305_ 0
     RHS c_u_x1306_ 0
     RHS c_u_x1307_ 0
     RHS c_u_x1308_ 0
     RHS c_u_x1309_ 0
     RHS c_u_x1310_ 0
     RHS c_u_x1311_ 0
     RHS c_u_x1312_ 0
     RHS c_u_x1313_ 0
     RHS c_u_x1314_ 0
     RHS c_u_x1315_ 0
     RHS c_u_x1316_ 0
     RHS c_u_x1317_ 0
     RHS c_u_x1318_ 0
     RHS c_u_x1319_ 0
     RHS c_u_x1320_ 0
     RHS c_u_x1321_ 0
     RHS c_u_x1322_ 0
     RHS c_u_x1323_ 0
     RHS c_u_x1324_ 0
     RHS c_u_x1325_ 0
     RHS c_u_x1326_ 0
     RHS c_u_x1327_ 0
     RHS c_u_x1328_ 0
     RHS c_u_x1329_ 0
     RHS c_u_x1330_ 0
     RHS c_u_x1331_ 0
     RHS c_u_x1332_ 0
     RHS c_u_x1333_ 0
     RHS c_u_x1334_ 0
     RHS c_u_x1335_ 0
     RHS c_u_x1336_ 0
     RHS c_u_x1337_ 0
     RHS c_u_x1338_ 0
     RHS c_u_x1339_ 0
     RHS c_u_x1340_ 0
     RHS c_u_x1341_ 0
     RHS c_u_x1342_ 0
     RHS c_u_x1343_ 0
     RHS c_u_x1344_ 0
     RHS c_u_x1345_ 0
     RHS c_u_x1346_ 0
     RHS c_u_x1347_ 0
     RHS c_u_x1348_ 0
     RHS c_u_x1349_ 0
     RHS c_u_x1350_ 0
     RHS c_u_x1351_ 0
     RHS c_u_x1352_ 0
     RHS c_u_x1353_ 0
     RHS c_u_x1354_ 0
     RHS c_u_x1355_ 0
     RHS c_u_x1356_ 0
     RHS c_u_x1357_ 0
     RHS c_u_x1358_ 0
     RHS c_u_x1359_ 0
     RHS c_u_x1360_ 0
     RHS c_u_x1361_ 0
     RHS c_u_x1362_ 0
     RHS c_u_x1363_ 0
     RHS c_u_x1364_ 0
     RHS c_u_x1365_ 0
     RHS c_u_x1366_ 0
     RHS c_u_x1367_ 0
     RHS c_u_x1368_ 0
     RHS c_u_x1369_ 0
     RHS c_u_x1370_ 0
     RHS c_u_x1371_ 0
     RHS c_u_x1372_ 0
     RHS c_u_x1373_ 0
     RHS c_u_x1374_ 0
BOUNDS
 LO BOUND x1 0
 LO BOUND x2 0
 LO BOUND x3 0
 LO BOUND x4 0
 LO BOUND x5 0
 LO BOUND x6 0
 LO BOUND x7 0
 LO BOUND x8 0
 LO BOUND x9 0
 LO BOUND x10 0
 LO BOUND x11 0
 LO BOUND x12 0
 LO BOUND x13 0
 LO BOUND x14 0
 LO BOUND x15 0
 LO BOUND x16 0
 LO BOUND x17 0
 LO BOUND x18 0
 LO BOUND x19 0
 LO BOUND x20 0
 LO BOUND x21 0
 LO BOUND x22 0
 LO BOUND x23 0
 LO BOUND x24 0
 LO BOUND x25 0
 LO BOUND x26 0
 LO BOUND x27 0
 LO BOUND x28 0
 LO BOUND x29 0
 LO BOUND x30 0
 LO BOUND x31 0
 LO BOUND x32 0
 LO BOUND x33 0
 LO BOUND x34 0
 LO BOUND x35 0
 LO BOUND x36 0
 LO BOUND x37 0
 LO BOUND x38 0
 LO BOUND x39 0
 LO BOUND x40 0
 LO BOUND x41 0
 LO BOUND x42 0
 LO BOUND x43 0
 LO BOUND x44 0
 LO BOUND x45 0
 LO BOUND x46 0
 LO BOUND x47 0
 LO BOUND x48 0
 LO BOUND x49 0
 LO BOUND x50 0
 LO BOUND x51 0
 LO BOUND x52 0
 LO BOUND x53 0
 LO BOUND x54 0
 LO BOUND x55 0
 LO BOUND x56 0
 LO BOUND x57 0
 LO BOUND x58 0
 LO BOUND x59 0
 LO BOUND x60 0
 LO BOUND x61 0
 LO BOUND x62 0
 LO BOUND x63 0
 LO BOUND x64 0
 LO BOUND x65 0
 LO BOUND x66 0
 LO BOUND x67 0
 LO BOUND x68 0
 LO BOUND x69 0
 LO BOUND x70 0
 LO BOUND x71 0
 LO BOUND x72 0
 LO BOUND x73 0
 LO BOUND x74 0
 LO BOUND x75 0
 LO BOUND x76 0
 LO BOUND x77 0
 LO BOUND x78 0
 LO BOUND x79 0
 LO BOUND x80 0
 LO BOUND x81 0
 LO BOUND x82 0
 LO BOUND x83 0
 LO BOUND x84 0
 LO BOUND x85 0
 LO BOUND x86 0
 LO BOUND x87 0
 LO BOUND x88 0
 LO BOUND x89 0
 LO BOUND x90 0
 LO BOUND x91 0
 LO BOUND x92 0
 LO BOUND x93 0
 LO BOUND x94 0
 LO BOUND x95 0
 LO BOUND x96 0
 LO BOUND x97 0
 LO BOUND x98 0
 LO BOUND x99 0
 LO BOUND x100 0
 LO BOUND x101 0
 LO BOUND x102 0
 LO BOUND x103 0
 LO BOUND x104 0
 LO BOUND x105 0
 LO BOUND x106 0
 LO BOUND x107 0
 LO BOUND x108 0
 LO BOUND x109 0
 LO BOUND x110 0
 LO BOUND x111 0
 LO BOUND x112 0
 LO BOUND x113 0
 LO BOUND x114 0
 LO BOUND x115 0
 LO BOUND x116 0
 LO BOUND x117 0
 LO BOUND x118 0
 LO BOUND x119 0
 LO BOUND x120 0
 LO BOUND x121 0
 LO BOUND x122 0
 LO BOUND x123 0
 LO BOUND x124 0
 LO BOUND x125 0
 LO BOUND x126 0
 LO BOUND x127 0
 LO BOUND x128 0
 LO BOUND x129 0
 LO BOUND x130 0
 LO BOUND x131 0
 LO BOUND x132 0
 LO BOUND x133 0
 LO BOUND x134 0
 LO BOUND x135 0
 LO BOUND x136 0
 LO BOUND x137 0
 LO BOUND x138 0
 LO BOUND x139 0
 LO BOUND x140 0
 LO BOUND x141 0
 LO BOUND x142 0
 LO BOUND x143 0
 LO BOUND x144 0
 BV BOUND x145
 BV BOUND x146
 BV BOUND x147
 BV BOUND x148
 BV BOUND x149
 BV BOUND x150
 BV BOUND x151
 BV BOUND x152
 BV BOUND x153
 BV BOUND x154
 BV BOUND x155
 BV BOUND x156
 BV BOUND x157
 BV BOUND x158
 BV BOUND x159
 BV BOUND x160
 BV BOUND x161
 BV BOUND x162
 BV BOUND x163
 BV BOUND x164
 BV BOUND x165
 BV BOUND x166
 BV BOUND x167
 BV BOUND x168
 BV BOUND x169
 BV BOUND x170
 BV BOUND x171
 BV BOUND x172
 BV BOUND x173
 BV BOUND x174
 BV BOUND x175
 BV BOUND x176
 BV BOUND x177
 BV BOUND x178
 BV BOUND x179
 BV BOUND x180
 BV BOUND x181
 BV BOUND x182
 BV BOUND x183
 BV BOUND x184
 BV BOUND x185
 BV BOUND x186
 BV BOUND x187
 BV BOUND x188
 BV BOUND x189
 BV BOUND x190
 BV BOUND x191
 BV BOUND x192
 BV BOUND x193
 BV BOUND x194
 BV BOUND x195
 BV BOUND x196
 BV BOUND x197
 BV BOUND x198
 BV BOUND x199
 BV BOUND x200
 BV BOUND x201
 BV BOUND x202
 BV BOUND x203
 BV BOUND x204
 BV BOUND x205
 BV BOUND x206
 BV BOUND x207
 BV BOUND x208
 BV BOUND x209
 BV BOUND x210
 BV BOUND x211
 BV BOUND x212
 BV BOUND x213
 BV BOUND x214
 BV BOUND x215
 BV BOUND x216
 LO BOUND x217 0
 LO BOUND x218 0
 LO BOUND x219 0
 LO BOUND x220 0
 LO BOUND x221 0
 LO BOUND x222 0
 LO BOUND x223 0
 LO BOUND x224 0
 LO BOUND x225 0
 LO BOUND x226 0
 LO BOUND x227 0
 LO BOUND x228 0
 LO BOUND x229 0
 LO BOUND x230 0
 LO BOUND x231 0
 LO BOUND x232 0
 LO BOUND x233 0
 LO BOUND x234 0
 LO BOUND x235 0
 LO BOUND x236 0
 LO BOUND x237 0
 LO BOUND x238 0
 LO BOUND x239 0
 LO BOUND x240 0
 LO BOUND x241 0
 LO BOUND x242 0
 LO BOUND x243 0
 LO BOUND x244 0
 LO BOUND x245 0
 LO BOUND x246 0
 LO BOUND x247 0
 LO BOUND x248 0
 LO BOUND x249 0
 LO BOUND x250 0
 LO BOUND x251 0
 LO BOUND x252 0
 LO BOUND x253 0
 LO BOUND x254 0
 LO BOUND x255 0
 LO BOUND x256 0
 LO BOUND x257 0
 LO BOUND x258 0
 LO BOUND x259 0
 LO BOUND x260 0
 LO BOUND x261 0
 LO BOUND x262 0
 LO BOUND x263 0
 LO BOUND x264 0
 LO BOUND x265 0
 LO BOUND x266 0
 LO BOUND x267 0
 LO BOUND x268 0
 LO BOUND x269 0
 LO BOUND x270 0
 LO BOUND x271 0
 LO BOUND x272 0
 LO BOUND x273 0
 LO BOUND x274 0
 LO BOUND x275 0
 LO BOUND x276 0
 LO BOUND x277 0
 LO BOUND x278 0
 LO BOUND x279 0
 LO BOUND x280 0
 LO BOUND x281 0
 LO BOUND x282 0
 LO BOUND x283 0
 LO BOUND x284 0
 LO BOUND x285 0
 LO BOUND x286 0
 LO BOUND x287 0
 LO BOUND x288 0
 LO BOUND x289 0
 LO BOUND x290 0
 LO BOUND x291 0
 LO BOUND x292 0
 LO BOUND x293 0
 LO BOUND x294 0
 LO BOUND x295 0
 LO BOUND x296 0
 LO BOUND x297 0
 LO BOUND x298 0
 LO BOUND x299 0
 LO BOUND x300 0
 LO BOUND x301 0
 LO BOUND x302 0
 LO BOUND x303 0
 LO BOUND x304 0
 LO BOUND x305 0
 LO BOUND x306 0
 LO BOUND x307 0
 LO BOUND x308 0
 LO BOUND x309 0
 LO BOUND x310 0
 LO BOUND x311 0
 LO BOUND x312 0
 LO BOUND x313 0
 LO BOUND x314 0
 LO BOUND x315 0
 LO BOUND x316 0
 LO BOUND x317 0
 LO BOUND x318 0
 LO BOUND x319 0
 LO BOUND x320 0
 LO BOUND x321 0
 LO BOUND x322 0
 LO BOUND x323 0
 LO BOUND x324 0
 LO BOUND x325 0
 LO BOUND x326 0
 LO BOUND x327 0
 LO BOUND x328 0
 LO BOUND x329 0
 LO BOUND x330 0
 LO BOUND x331 0
 LO BOUND x332 0
 LO BOUND x333 0
 LO BOUND x334 0
 LO BOUND x335 0
 LO BOUND x336 0
 LO BOUND x337 0
 LO BOUND x338 0
 LO BOUND x339 0
 LO BOUND x340 0
 LO BOUND x341 0
 LO BOUND x342 0
 LO BOUND x343 0
 LO BOUND x344 0
 LO BOUND x345 0
 LO BOUND x346 0
 LO BOUND x347 0
 LO BOUND x348 0
 LO BOUND x349 0
 LO BOUND x350 0
 LO BOUND x351 0
 LO BOUND x352 0
 LO BOUND x353 0
 LO BOUND x354 0
 LO BOUND x355 0
 LO BOUND x356 0
 LO BOUND x357 0
 LO BOUND x358 0
 LO BOUND x359 0
 LO BOUND x360 0
 LO BOUND x361 0
 LO BOUND x362 0
 LO BOUND x363 0
 LO BOUND x364 0
 LO BOUND x365 0
 LO BOUND x366 0
 LO BOUND x367 0
 LO BOUND x368 0
 LO BOUND x369 0
 LO BOUND x370 0
 LO BOUND x371 0
 LO BOUND x372 0
 LO BOUND x373 0
 LO BOUND x374 0
 LO BOUND x375 0
 LO BOUND x376 0
 LO BOUND x377 0
 LO BOUND x378 0
 LO BOUND x379 0
 LO BOUND x380 0
 LO BOUND x381 0
 LO BOUND x382 0
 LO BOUND x383 0
 LO BOUND x384 0
 LO BOUND x385 0
 LO BOUND x386 0
 LO BOUND x387 0
 LO BOUND x388 0
 LO BOUND x389 0
 LO BOUND x390 0
 LO BOUND x391 0
 LO BOUND x392 0
 LO BOUND x393 0
 LO BOUND x394 0
 LO BOUND x395 0
 LO BOUND x396 0
 LO BOUND x397 0
 LO BOUND x398 0
 LO BOUND x399 0
 LO BOUND x400 0
 LO BOUND x401 0
 LO BOUND x402 0
 LO BOUND x403 0
 LO BOUND x404 0
 LO BOUND x405 0
 LO BOUND x406 0
 LO BOUND x407 0
 LO BOUND x408 0
 LO BOUND x409 0
 LO BOUND x410 0
 LO BOUND x411 0
 LO BOUND x412 0
 LO BOUND x413 0
 LO BOUND x414 0
 LO BOUND x415 0
 LO BOUND x416 0
 LO BOUND x417 0
 LO BOUND x418 0
 LO BOUND x419 0
 LO BOUND x420 0
 LO BOUND x421 0
 LO BOUND x422 0
 LO BOUND x423 0
 LO BOUND x424 0
 LO BOUND x425 0
 LO BOUND x426 0
 LO BOUND x427 0
 LO BOUND x428 0
 LO BOUND x429 0
 LO BOUND x430 0
 LO BOUND x431 0
 LO BOUND x432 0
 LO BOUND x433 0
 LO BOUND x434 0
 LO BOUND x435 0
 LO BOUND x436 0
 LO BOUND x437 0
 LO BOUND x438 0
 LO BOUND x439 0
 LO BOUND x440 0
 LO BOUND x441 0
 LO BOUND x442 0
 LO BOUND x443 0
 LO BOUND x444 0
 LO BOUND x445 0
 LO BOUND x446 0
 LO BOUND x447 0
 LO BOUND x448 0
 LO BOUND x449 0
 LO BOUND x450 0
 LO BOUND x451 0
 LO BOUND x452 0
 LO BOUND x453 0
 LO BOUND x454 0
 LO BOUND x455 0
 LO BOUND x456 0
 LO BOUND x457 0
 LO BOUND x458 0
 LO BOUND x459 0
 LO BOUND x460 0
 LO BOUND x461 0
 LO BOUND x462 0
 LO BOUND x463 0
 LO BOUND x464 0
 LO BOUND x465 0
 LO BOUND x466 0
 LO BOUND x467 0
 LO BOUND x468 0
 LO BOUND x469 0
 LO BOUND x470 0
 LO BOUND x471 0
 LO BOUND x472 0
 LO BOUND x473 0
 LO BOUND x474 0
 LO BOUND x475 0
 LO BOUND x476 0
 LO BOUND x477 0
 LO BOUND x478 0
 LO BOUND x479 0
 LO BOUND x480 0
 LO BOUND x481 0
 LO BOUND x482 0
 LO BOUND x483 0
 LO BOUND x484 0
 LO BOUND x485 0
 LO BOUND x486 0
 LO BOUND x487 0
 LO BOUND x488 0
 LO BOUND x489 0
 LO BOUND x490 0
 LO BOUND x491 0
 LO BOUND x492 0
 LO BOUND x493 0
 LO BOUND x494 0
 LO BOUND x495 0
 LO BOUND x496 0
 LO BOUND x497 0
 LO BOUND x498 0
 LO BOUND x499 0
 LO BOUND x500 0
 LO BOUND x501 0
 LO BOUND x502 0
 LO BOUND x503 0
 LO BOUND x504 0
 BV BOUND x505
 BV BOUND x506
 BV BOUND x507
 BV BOUND x508
 BV BOUND x509
 BV BOUND x510
 BV BOUND x511
 BV BOUND x512
 BV BOUND x513
 BV BOUND x514
 BV BOUND x515
 BV BOUND x516
 BV BOUND x517
 BV BOUND x518
 BV BOUND x519
 BV BOUND x520
 BV BOUND x521
 BV BOUND x522
 BV BOUND x523
 BV BOUND x524
 BV BOUND x525
 BV BOUND x526
 BV BOUND x527
 BV BOUND x528
 BV BOUND x529
 BV BOUND x530
 BV BOUND x531
 BV BOUND x532
 BV BOUND x533
 BV BOUND x534
 BV BOUND x535
 BV BOUND x536
 BV BOUND x537
 BV BOUND x538
 BV BOUND x539
 BV BOUND x540
 BV BOUND x541
 BV BOUND x542
 BV BOUND x543
 BV BOUND x544
 BV BOUND x545
 BV BOUND x546
 BV BOUND x547
 BV BOUND x548
 BV BOUND x549
 BV BOUND x550
 BV BOUND x551
 BV BOUND x552
 BV BOUND x553
 BV BOUND x554
 BV BOUND x555
 BV BOUND x556
 BV BOUND x557
 BV BOUND x558
 BV BOUND x559
 BV BOUND x560
 BV BOUND x561
 BV BOUND x562
 BV BOUND x563
 BV BOUND x564
 BV BOUND x565
 BV BOUND x566
 BV BOUND x567
 BV BOUND x568
 BV BOUND x569
 BV BOUND x570
 BV BOUND x571
 BV BOUND x572
 BV BOUND x573
 BV BOUND x574
 BV BOUND x575
 BV BOUND x576
 LO BOUND x579 0
ENDATA
